LAMMPS (20 Nov 2019)


# ----------------- Init Section -----------------

include "system.in.init"
    # Default styles and settings for AMBER based force-fields:
    units           real
    atom_style      full
    bond_style      hybrid harmonic
    angle_style     hybrid harmonic
    dihedral_style  hybrid fourier
    improper_style  hybrid cvff
    pair_style      hybrid lj/charmm/coul/long 9.0 10.0 10.0
    kspace_style    pppm 0.0001

    # NOTE: If you do not want to use long-range coulombic forces,
    #       comment out the two lines above and uncomment this line:
    # pair_style      hybrid lj/charmm/coul/charmm 9.0 10.0

    pair_modify     mix arithmetic
    special_bonds   amber


# ----------------- Atom Definition Section -----------------

read_data bpy-128_su.lmp
  orthogonal box = (0 0 0) to (47 47.07 47)
  1 by 1 by 1 MPI processor grid
  reading atoms ...
  2560 atoms
  reading velocities ...
  2560 velocities
  scanning bonds ...
  3 = max bonds/atom
  scanning angles ...
  3 = max angles/atom
  scanning dihedrals ...
  10 = max dihedrals/atom
  scanning impropers ...
  1 = max impropers/atom
  reading bonds ...
  2688 bonds
  reading angles ...
  4096 angles
  reading dihedrals ...
  5632 dihedrals
  reading impropers ...
  512 impropers
  3 = max # of 1-2 neighbors
  6 = max # of 1-3 neighbors
  14 = max # of 1-4 neighbors
  16 = max # of special neighbors
  special bonds CPU = 0.0097274 secs
  read_data CPU = 0.0720076 secs

# ----------------- Settings Section -----------------

include "system.in.settings"
pair_coeff 19 19 lj/charmm/coul/long 0.0157 2.47135304412   # Veenstra et al JCC,8,(1992),963
pair_coeff 20 20 lj/charmm/coul/long 0.0157 2.29317330049   # Veenstra et al JCC,8,(1992),963
pair_coeff 21 21 lj/charmm/coul/long 0.0157 2.11499355687   # Veenstra et al JCC,8,(1992),963
pair_coeff 22 22 lj/charmm/coul/long 0.0150 2.51055258772   # Spellmeyer, one electrowithdr. neighbor
pair_coeff 23 23 lj/charmm/coul/long 0.0150 2.42146271591   # Spellmeyer, two electrowithdr. neighbor
pair_coeff 24 24 lj/charmm/coul/long 0.0150 2.59964245953   # Spellmeyer
pair_coeff 25 25 lj/charmm/coul/long 0.0157 2.64953278775   # OPLS
pair_coeff 26 26 lj/charmm/coul/long 0.0157 1.06907846177   # !Ferguson base pair geom.
pair_coeff 27 27 lj/charmm/coul/long 0.0000 0.0   # OPLS Jorgensen, JACS,110,(1988),1657
pair_coeff 28 28 lj/charmm/coul/long 0.0157 1.06907846177   # same to hs (be careful !)
pair_coeff 29 29 lj/charmm/coul/long 0.0157 1.06907846177   # W. Cornell CH3SH --> CH3OH FEP
pair_coeff 30 30 lj/charmm/coul/long 0.0000 0.0   # OPLS Jorgensen, JACS,110,(1988),1657
pair_coeff 31 31 lj/charmm/coul/long 0.0157 1.95997717991   # Veenstra et al JCC,8,(1992),963
pair_coeff 49 49 lj/charmm/coul/long 0.2100 2.95992190115   # OPLS
pair_coeff 50 50 lj/charmm/coul/long 0.2104 3.06647338784   # OPLS
pair_coeff 51 51 lj/charmm/coul/long 0.1700 3.00001234347   # OPLS ether
pair_coeff 52 52 lj/charmm/coul/long 0.1520 3.15075240658   # TIP3P water model
pair_coeff 1 1 lj/charmm/coul/long 0.0860 3.39966950842   # OPLS
pair_coeff 2 2 lj/charmm/coul/long 0.2100 3.39966950842   # cp C DLM 11/2007 well depth from OPLS replacing 0.0860
pair_coeff 3 3 lj/charmm/coul/long 0.0860 3.39966950842   # sp2 atom in the middle of C=CD-CD=C
pair_coeff 4 4 lj/charmm/coul/long 0.1094 3.39966950842   # OPLS
pair_coeff 5 5 lj/charmm/coul/long 0.0860 3.39966950842   # OPLS
pair_coeff 8 8 lj/charmm/coul/long 0.0860 3.39966950842   # OPLS
pair_coeff 9 9 lj/charmm/coul/long 0.0860 3.39966950842   # OPLS
pair_coeff 10 10 lj/charmm/coul/long 0.0860 3.39966950842   # OPLS
pair_coeff 11 11 lj/charmm/coul/long 0.0860 3.39966950842   # OPLS
pair_coeff 12 12 lj/charmm/coul/long 0.2100 3.39966950842   # DLM 12/2007 as c1
pair_coeff 13 13 lj/charmm/coul/long 0.2100 3.39966950842   # DLM 12/2007 as c1
pair_coeff 6 6 lj/charmm/coul/long 0.0860 3.39966950842   # OPLS
pair_coeff 7 7 lj/charmm/coul/long 0.0860 3.39966950842   # OPLS
pair_coeff 16 16 lj/charmm/coul/long 0.0860 3.39966950842   # OPLS
pair_coeff 17 17 lj/charmm/coul/long 0.0860 3.39966950842   # OPLS
pair_coeff 14 14 lj/charmm/coul/long 0.0860 3.39966950842   # OPLS
pair_coeff 15 15 lj/charmm/coul/long 0.0860 3.39966950842   # OPLS
pair_coeff 18 18 lj/charmm/coul/long 0.0860 3.39966950842   # OPLS
pair_coeff 36 36 lj/charmm/coul/long 0.1700 3.24999852378   # OPLS
pair_coeff 37 37 lj/charmm/coul/long 0.1700 3.24999852378   # OPLS
pair_coeff 38 38 lj/charmm/coul/long 0.1700 3.24999852378   # OPLS
pair_coeff 39 39 lj/charmm/coul/long 0.1700 3.24999852378   # OPLS
pair_coeff 40 40 lj/charmm/coul/long 0.1700 3.24999852378   # OPLS
pair_coeff 41 41 lj/charmm/coul/long 0.1700 3.24999852378   # OPLS
pair_coeff 42 42 lj/charmm/coul/long 0.1700 3.24999852378   # OPLS
pair_coeff 43 43 lj/charmm/coul/long 0.1700 3.24999852378   # OPLS
pair_coeff 44 44 lj/charmm/coul/long 0.1700 3.24999852378   # OPLS
pair_coeff 45 45 lj/charmm/coul/long 0.1700 3.24999852378   # OPLS
pair_coeff 46 46 lj/charmm/coul/long 0.1700 3.24999852378   # OPLS
pair_coeff 47 47 lj/charmm/coul/long 0.1700 3.24999852378   # OPLS
pair_coeff 48 48 lj/charmm/coul/long 0.1700 3.24999852378   # OPLS
pair_coeff 64 64 lj/charmm/coul/long 0.2500 3.56359487256   # W. Cornell CH3SH and CH3SCH3 FEP's
pair_coeff 65 65 lj/charmm/coul/long 0.2500 3.56359487256   # W. Cornell CH3SH and CH3SCH3 FEP's
pair_coeff 66 66 lj/charmm/coul/long 0.2500 3.56359487256   # W. Cornell CH3SH and CH3SCH3 FEP's
pair_coeff 67 67 lj/charmm/coul/long 0.2500 3.56359487256   # W. Cornell CH3SH and CH3SCH3 FEP's
pair_coeff 70 70 lj/charmm/coul/long 0.2500 3.56359487256   # W. Cornell CH3SH and CH3SCH3 FEP's
pair_coeff 71 71 lj/charmm/coul/long 0.2500 3.56359487256   # W. Cornell CH3SH and CH3SCH3 FEP's
pair_coeff 68 68 lj/charmm/coul/long 0.2500 3.56359487256   # W. Cornell CH3SH and CH3SCH3 FEP's
pair_coeff 69 69 lj/charmm/coul/long 0.2500 3.56359487256   # W. Cornell CH3SH and CH3SCH3 FEP's
pair_coeff 53 53 lj/charmm/coul/long 0.2000 3.74177461619   # JCC,7,(1986),230;
pair_coeff 54 54 lj/charmm/coul/long 0.2000 3.74177461619   # JCC,7,(1986),230;
pair_coeff 55 55 lj/charmm/coul/long 0.2000 3.74177461619   # JCC,7,(1986),230;
pair_coeff 56 56 lj/charmm/coul/long 0.2000 3.74177461619   # JCC,7,(1986),230;
pair_coeff 57 57 lj/charmm/coul/long 0.2000 3.74177461619   # JCC,7,(1986),230;
pair_coeff 58 58 lj/charmm/coul/long 0.2000 3.74177461619   # JCC,7,(1986),230;
pair_coeff 59 59 lj/charmm/coul/long 0.2000 3.74177461619   # JCC,7,(1986),230;
pair_coeff 60 60 lj/charmm/coul/long 0.2000 3.74177461619   # JCC,7,(1986),230;
pair_coeff 61 61 lj/charmm/coul/long 0.2000 3.74177461619   # JCC,7,(1986),230;
pair_coeff 62 62 lj/charmm/coul/long 0.2000 3.74177461619   # JCC,7,(1986),230;
pair_coeff 63 63 lj/charmm/coul/long 0.2000 3.74177461619   # JCC,7,(1986),230;
pair_coeff 32 32 lj/charmm/coul/long 0.061 3.11814551349   # Gough et al. JCC 13,(1992),963.
pair_coeff 33 33 lj/charmm/coul/long 0.265 3.47094140587   # Fox, JPCB,102,8070,(98),flex.mdl CHCl3
pair_coeff 34 34 lj/charmm/coul/long 0.420 3.59923082129   # Junmei, 2010
pair_coeff 35 35 lj/charmm/coul/long 0.50 3.830864488   # Junmei, 2010
    bond_coeff 1 harmonic 553.0 0.9572   # TIP3P_Water 1
    bond_coeff 2 harmonic 553.0 1.5136   # TIP3P_Water 1
    bond_coeff 3 harmonic 123.2 2.5420   # SOURCE1 4 0.0000
    bond_coeff 4 harmonic 352.7 1.7870   # SOURCE2 4 0.0024
    bond_coeff 5 harmonic 278.7 1.8830   # SOURCE1 31 0.0000
    bond_coeff 6 harmonic 240.3 1.9460   # SOURCE2 2 0.0285
    bond_coeff 7 harmonic 229.5 1.9660   # SOURCE1 100 0.0000
    bond_coeff 8 harmonic 269.6 1.8970   # SOURCE1 127 0.0058
    bond_coeff 9 harmonic 277.6 1.8847   # SOURCE4 39 0.0068
    bond_coeff 10 harmonic 261.4 1.9100   # SOURCE1 8 0.0000
    bond_coeff 11 harmonic 142.4 2.6710   # SOURCE1 2 0.0245
    bond_coeff 12 harmonic 330.4 1.8600   # SOUECE3 1
    bond_coeff 13 harmonic 219.0 2.0380   # SOURCE3 5 0.1082
    bond_coeff 14 harmonic 320.2 1.8730   # SOURCE3 4 0.0046
    bond_coeff 15 harmonic 265.9 1.9520   # SOURCE3 2 0.0000
    bond_coeff 16 harmonic 282.4 1.9260   # SOURCE3 3 0.0013
    bond_coeff 17 harmonic 237.3 2.0020   # SOURCE3 7 0.2156
    bond_coeff 18 harmonic 270.9 1.9440   # SOURCE3 1 0.0000
    bond_coeff 19 harmonic 191.0 2.1010   # SOURCE3 1 0.0000
    bond_coeff 20 harmonic 278.9 1.8000   # SOUECE3 1
    bond_coeff 21 harmonic 237.2 1.8660   # SOURCE3 1 0.0000
    bond_coeff 22 harmonic 225.6 1.8870   # SOURCE3 2 0.0000
    bond_coeff 23 harmonic 174.3 2.2100   # SOURCE3 9 0.0510
    bond_coeff 24 harmonic 167.0 2.2310   # SOURCE3 3 0.0101
    bond_coeff 25 harmonic 188.8 2.1710   # SOUECE3 1
    bond_coeff 26 harmonic 179.3 2.1960   # SOURCE3 3 0.0099
    bond_coeff 27 harmonic 170.6 2.2200   # SOUECE3 1
    bond_coeff 28 harmonic 134.3 2.3410   # SOURCE3 1 0.0000
    bond_coeff 29 harmonic 172.7 2.2140   # SOURCE3 3 0.0443
    bond_coeff 30 harmonic 174.4 2.2090   # SOURCE3 1 0.0000
    bond_coeff 31 harmonic 176.6 2.2030   # SOURCE3 3 0.0035
    bond_coeff 32 harmonic 986.2 1.1810   # SOURCE1 265 0.0031
    bond_coeff 33 harmonic 625.0 1.3070   # SOURCE1 18 0.0000
    bond_coeff 34 harmonic 368.3 1.4700   # SOURCE1 215 0.0017
    bond_coeff 35 harmonic 404.1 1.4400   # SOUECE3 1
    bond_coeff 36 harmonic 607.4 1.3153   # SOURCE4 6 0.0086
    bond_coeff 37 harmonic 845.8 1.2220   # SOURCE3 22 0.0101
    bond_coeff 38 harmonic 845.8 1.2220   # SOURCE3 22 same_as_c1-cg
    bond_coeff 39 harmonic 419.7 1.6310   # SOURCE2 6 0.0050
    bond_coeff 40 harmonic 399.1 1.4440   # SOURCE1 38 0.0000
    bond_coeff 41 harmonic 469.4 1.2700   # SOURCE2 2 0.0085
    bond_coeff 42 harmonic 375.9 1.0660   # SOURCE3 63 0.0035
    bond_coeff 43 harmonic 385.6 1.0600   # SOUECE3 1
    bond_coeff 44 harmonic 318.8 1.9890   # SOURCE2 4 0.0032
    bond_coeff 45 harmonic 1014.5 1.1380   # SOURCE1 170 0.0055
    bond_coeff 46 harmonic 769.8 1.2100   # SOURCE3 5 0.0115
    bond_coeff 47 harmonic 409.8 1.3920   # SOURCE2 1 0.0000
    bond_coeff 48 harmonic 378.2 1.4170   # SOURCE3 3 0.0032
    bond_coeff 49 harmonic 503.0 1.3300   # SOUECE3 1
    bond_coeff 50 harmonic 452.0 1.3620   # SOURCE3 8 0.0034
    bond_coeff 51 harmonic 803.3 1.1986   # SOURCE4 10 0.0088
    bond_coeff 52 harmonic 803.3 1.1986   # SOURCE4 10 same_as_c1-ne
    bond_coeff 53 harmonic 485.0 1.3408   # SOURCE4 11 0.0037
    bond_coeff 54 harmonic 393.0 1.4050   # SOURCE3 3 0.0005
    bond_coeff 55 harmonic 777.0 1.1660   # SOURCE2 9 0.0052
    bond_coeff 56 harmonic 435.6 1.3260   # SOURCE3 1 0.0000
    bond_coeff 57 harmonic 437.1 1.3250   # SOURCE3 3 0.0148
    bond_coeff 58 harmonic 289.3 1.7700   # SOUECE3 1
    bond_coeff 59 harmonic 275.1 1.7900   # SOUECE3 1
    bond_coeff 60 harmonic 275.1 1.7900   # SOUECE3 1
    bond_coeff 61 harmonic 302.2 1.7530   # SOURCE3 2 0.0000
    bond_coeff 62 harmonic 410.0 1.5950   # SOURCE3 1 0.0000
    bond_coeff 63 harmonic 371.8 1.6300   # SOURCE1 14 0.0000
    bond_coeff 64 harmonic 272.9 1.7460   # SOURCE3 2 0.0000
    bond_coeff 65 harmonic 290.4 1.7220   # SOURCE3 2 0.0000
    bond_coeff 66 harmonic 324.5 1.6800   # SOUECE3 1
    bond_coeff 67 harmonic 325.4 1.6790   # SOURCE1 10 0.0000
    bond_coeff 68 harmonic 589.7 1.3240   # SOURCE1 974 0.0096
    bond_coeff 69 harmonic 328.3 1.5080   # SOURCE1 2536 0.0021
    bond_coeff 70 harmonic 357.2 1.4800   # SOUECE3 1
    bond_coeff 71 harmonic 522.6 1.3600   # SOURCE1 771 0.0185
    bond_coeff 72 harmonic 522.6 1.3600   # SOURCE1 771 0.0185
    bond_coeff 73 harmonic 560.5 1.3390   # SOURCE3 62 0.0128
    bond_coeff 74 harmonic 560.5 1.3390   # SOURCE3 62 same_as_c2-ce
    bond_coeff 75 harmonic 328.8 1.7220   # SOURCE1 163 0.0098
    bond_coeff 76 harmonic 573.9 1.3320   # SOURCE2 1 0.0000
    bond_coeff 77 harmonic 353.3 1.4836   # SOURCE4 26 0.0064
    bond_coeff 78 harmonic 331.7 1.5046   # SOURCE4 9 0.0053
    bond_coeff 79 harmonic 368.7 1.3400   # SOURCE1 34 0.0000
    bond_coeff 80 harmonic 348.6 1.0840   # SOURCE3 40 0.0058
    bond_coeff 81 harmonic 338.0 1.0915   # SOURCE4 42 0.0017
    bond_coeff 82 harmonic 344.3 1.0870   # SOURCE3 797 0.0046
    bond_coeff 83 harmonic 344.3 1.0870   # SOURCE3 789 0.0046
    bond_coeff 84 harmonic 350.1 1.0830   # SOURCE3 3 0.0008
    bond_coeff 85 harmonic 223.2 2.1530   # SOURCE3 2 0.0000
    bond_coeff 86 harmonic 546.0 1.3060   # SOURCE3 4 0.0161
    bond_coeff 87 harmonic 581.1 1.2880   # SOURCE1 103 0.0100
    bond_coeff 88 harmonic 486.3 1.3400   # SOUECE3 1
    bond_coeff 89 harmonic 390.5 1.4070   # SOURCE3 9 0.0124
    bond_coeff 90 harmonic 309.1 1.4820   # SOURCE3 5 0.0064
    bond_coeff 91 harmonic 411.1 1.3910   # SOURCE3 31 0.0289
    bond_coeff 92 harmonic 533.0 1.3130   # SOURCE1 99 0.0095
    bond_coeff 93 harmonic 533.0 1.3130   # SOURCE1 99 same_as_c2-nc
    bond_coeff 94 harmonic 597.7 1.2800   # SOURCE3 37 0.0110
    bond_coeff 95 harmonic 597.7 1.2800   # SOURCE3 37 same_as_c2-ne
    bond_coeff 96 harmonic 462.6 1.3550   # SOURCE3 38 0.0413
    bond_coeff 97 harmonic 345.6 1.4457   # SOURCE4 7 0.0087
    bond_coeff 98 harmonic 623.6 1.2244   # SOURCE4 15 0.0036
    bond_coeff 99 harmonic 425.4 1.3330   # SOURCE1 53 0.0000
    bond_coeff 100 harmonic 392.6 1.3570   # SOURCE1 315 0.0097
    bond_coeff 101 harmonic 375.9 1.6700   # SOURCE3 62 0.0147
    bond_coeff 102 harmonic 246.6 1.8340   # SOURCE3 5 0.0042
    bond_coeff 103 harmonic 254.0 1.8220   # SOUECE3 1
    bond_coeff 104 harmonic 228.2 1.8658   # SOURCE4 5 0.0025
    bond_coeff 105 harmonic 355.3 1.6910   # SOURCE3 52 0.0542
    bond_coeff 106 harmonic 355.3 1.6910   # SOURCE3 52 same_as_c2-pe
    bond_coeff 107 harmonic 393.1 1.6100   # SOURCE2 1 0.0000
    bond_coeff 108 harmonic 281.5 1.7340   # SOURCE3 4 0.0034
    bond_coeff 109 harmonic 263.2 1.7600   # SOUECE3 1
    bond_coeff 110 harmonic 263.2 1.7600   # SOUECE3 1
    bond_coeff 111 harmonic 252.0 1.7771   # SOURCE4 5 0.0037
    bond_coeff 112 harmonic 280.0 1.7360   # SOURCE1 209 0.0155
    bond_coeff 113 harmonic 303.1 1.5350   # SOURCE1 14664 0.0048
    bond_coeff 114 harmonic 323.5 1.5130   # SOURCE1 1813 0.0000
    bond_coeff 115 harmonic 337.3 1.4990   # SOURCE3 50 0.0096
    bond_coeff 116 harmonic 337.3 1.4990   # SOURCE3 50 0.0096
    bond_coeff 117 harmonic 331.3 1.5050   # SOURCE3 9 0.0024
    bond_coeff 118 harmonic 331.3 1.5050   # SOURCE3 9 same_as_c3-ce
    bond_coeff 119 harmonic 279.0 1.7860   # SOURCE1 267 0.0194
    bond_coeff 120 harmonic 359.4 1.4780   # SOURCE1 7 0.0000
    bond_coeff 121 harmonic 347.6 1.4890   # SOURCE1 11 0.0000
    bond_coeff 122 harmonic 322.5 1.5140   # SOURCE1 712 0.0045
    bond_coeff 123 harmonic 308.5 1.5290   # SOURCE1 376 0.0000
    bond_coeff 124 harmonic 363.8 1.3440   # SOURCE1 617 0.0281
    bond_coeff 125 harmonic 335.9 1.0930   # SOURCE3 2175 0.0082
    bond_coeff 126 harmonic 326.4 1.1000   # SOURCE3 66 0.0280
    bond_coeff 127 harmonic 333.4 1.0948   # SOURCE4 25 0.0026
    bond_coeff 128 harmonic 337.3 1.0920   # SOURCE3 2815 0.0059
    bond_coeff 129 harmonic 338.7 1.0910   # SOURCE3 146 0.0066
    bond_coeff 130 harmonic 219.1 2.1620   # SOURCE1 15 0.0000
    bond_coeff 131 harmonic 325.1 1.4700   # SOURCE3 0
    bond_coeff 132 harmonic 313.8 1.4770   # SOURCE1 129 0.0138
    bond_coeff 133 harmonic 330.6 1.4600   # SOURCE1 187 0.0079
    bond_coeff 134 harmonic 320.6 1.4700   # SOURCE1 1678 0.0017
    bond_coeff 135 harmonic 293.6 1.4990   # SOURCE1 1370 0.0000
    bond_coeff 136 harmonic 334.7 1.4560   # SOURCE3 23 0.0119
    bond_coeff 137 harmonic 334.7 1.4560   # SOURCE3 9 0.0109
    bond_coeff 138 harmonic 334.7 1.4560   # SOURCE3 9 same_as_c3-nc
    bond_coeff 139 harmonic 332.7 1.4580   # SOURCE3 27 0.0085
    bond_coeff 140 harmonic 265.4 1.5330   # SOURCE1 83 0.0212
    bond_coeff 141 harmonic 449.9 1.3165   # SOURCE4 8 0.0193
    bond_coeff 142 harmonic 314.1 1.4260   # SOURCE1 914 0.0129
    bond_coeff 143 harmonic 301.5 1.4390   # SOURCE1 3123 0.0126
    bond_coeff 144 harmonic 234.3 1.8550   # SOURCE3 9 0.0125
    bond_coeff 145 harmonic 240.6 1.8440   # SOURCE3 109 0.0107
    bond_coeff 146 harmonic 247.2 1.8330   # SOURCE3 29 0.0138
    bond_coeff 147 harmonic 259.7 1.8130   # SOURCE1 84 0.0000
    bond_coeff 148 harmonic 252.7 1.8240   # SOURCE3 28 0.0098
    bond_coeff 149 harmonic 259.7 1.8130   # SOURCE3 13 0.0163
    bond_coeff 150 harmonic 212.9 1.8450   # SOURCE3 4 0.0185
    bond_coeff 151 harmonic 233.8 1.8070   # SOURCE1 139 0.0023
    bond_coeff 152 harmonic 254.0 1.7740   # SOURCE1 118 0.0103
    bond_coeff 153 harmonic 225.3 1.8220   # SOURCE3 12 0.0051
    bond_coeff 154 harmonic 225.8 1.8210   # SOURCE1 358 0.0075
    bond_coeff 155 harmonic 232.6 1.8090   # SOURCE3 30 0.0067
    bond_coeff 156 harmonic 248.9 1.7820   # SOURCE3 31 0.0039
    bond_coeff 157 harmonic 478.4 1.3870   # SOURCE1 6228 0.0147
    bond_coeff 158 harmonic 411.7 1.4340   # SOURCE1 80 0.0000
    bond_coeff 159 harmonic 411.7 1.4340   # SOURCE1 80 0.0000
    bond_coeff 160 harmonic 366.0 1.4720   # SOURCE1 71 0.0030
    bond_coeff 161 harmonic 366.0 1.4720   # SOURCE1 71 0.0030
    bond_coeff 162 harmonic 406.6 1.4380   # SOURCE1 71 0.0045
    bond_coeff 163 harmonic 406.6 1.4380   # SOURCE1 71 0.0045
    bond_coeff 164 harmonic 322.8 1.7290   # SOURCE1 704 0.0095
    bond_coeff 165 harmonic 461.8 1.3980   # CORR 28
    bond_coeff 166 harmonic 461.8 1.3980   # CORR 28
    bond_coeff 167 harmonic 350.8 1.4860   # SOURCE1 98 0.0118
    bond_coeff 168 harmonic 323.0 1.5135   # SOURCE4 8 0.0043
    bond_coeff 169 harmonic 363.8 1.3440   # SOURCE1 205 0.0089
    bond_coeff 170 harmonic 342.9 1.0880   # SOURCE3 57 0.0026
    bond_coeff 171 harmonic 347.2 1.0850   # SOURCE3 15 0.0048
    bond_coeff 172 harmonic 344.3 1.0870   # SOURCE3 1496 0.0045
    bond_coeff 173 harmonic 252.4 2.0950   # SOURCE1 51 0.0000
    bond_coeff 174 harmonic 398.1 1.4000   # SOURCE3 0
    bond_coeff 175 harmonic 551.6 1.3030   # SOURCE4 7 0.0058
    bond_coeff 176 harmonic 372.3 1.4220   # SOURCE3 9 0.0098
    bond_coeff 177 harmonic 325.6 1.4650   # SOURCE1 23 0.0000
    bond_coeff 178 harmonic 470.3 1.3500   # SOURCE1 150 0.0103
    bond_coeff 179 harmonic 483.1 1.3420   # SOURCE3 104 0.0076
    bond_coeff 180 harmonic 492.9 1.3360   # SOURCE1 1826 0.0020
    bond_coeff 181 harmonic 492.9 1.3360   # SOURCE1 1826 0.0020
    bond_coeff 182 harmonic 361.8 1.4310   # SOURCE1 52 0.0000
    bond_coeff 183 harmonic 361.8 1.4310   # SOURCE1 52 0.0000
    bond_coeff 184 harmonic 449.0 1.3640   # SOURCE1 137 0.0085
    bond_coeff 185 harmonic 322.6 1.4680   # SOURCE1 556 0.0000
    bond_coeff 186 harmonic 610.0 1.2304   # SOURCE4 5 0.0026
    bond_coeff 187 harmonic 386.1 1.3620   # SOURCE1 551 0.0000
    bond_coeff 188 harmonic 372.4 1.3730   # SOURCE1 1092 0.0071
    bond_coeff 189 harmonic 243.0 1.8400   # SOUECE3 1
    bond_coeff 190 harmonic 252.7 1.8240   # SOURCE1 145 0.0187
    bond_coeff 191 harmonic 264.3 1.8060   # SOUECE3 1
    bond_coeff 192 harmonic 271.6 1.7950   # SOURCE1 571 0.0028
    bond_coeff 193 harmonic 249.6 1.8290   # SOURCE3 10 0.0042
    bond_coeff 194 harmonic 249.6 1.8290   # SOURCE3 10 0.0042
    bond_coeff 195 harmonic 252.1 1.8250   # SOURCE3 5 0.0168
    bond_coeff 196 harmonic 268.3 1.7999   # SOURCE4 5 0.0072
    bond_coeff 197 harmonic 277.9 1.7390   # SOURCE3 2 0.0000
    bond_coeff 198 harmonic 245.2 1.7880   # SOURCE1 51 0.0048
    bond_coeff 199 harmonic 263.9 1.7590   # SOURCE1 229 0.0036
    bond_coeff 200 harmonic 251.3 1.7783   # SOURCE4 12 0.0041
    bond_coeff 201 harmonic 256.6 1.7700   # SOURCE1 297 0.0041
    bond_coeff 202 harmonic 223.5 1.8252   # SOURCE4 24 0.0032
    bond_coeff 203 harmonic 247.7 1.7840   # SOURCE3 13 0.0094
    bond_coeff 204 harmonic 379.8 1.4600   # SOUECE3 1
    bond_coeff 205 harmonic 449.9 1.4060   # SOURCE3 2 0.0370
    bond_coeff 206 harmonic 290.1 1.5500   # SOURCE1 31 0.0100
    bond_coeff 207 harmonic 328.3 1.5080   # SOURCE1 2949 0.0060
    bond_coeff 208 harmonic 349.7 1.4870   # SOURCE1 480 0.0055
    bond_coeff 209 harmonic 377.4 1.4620   # SOURCE3 132 0.0210
    bond_coeff 210 harmonic 418.3 1.4290   # SOURCE1 740 0.0069
    bond_coeff 211 harmonic 504.0 1.3710   # SOURCE3 523 0.0217
    bond_coeff 212 harmonic 387.9 1.4532   # CORR 249
    bond_coeff 213 harmonic 511.3 1.3666   # CORR 70
    bond_coeff 214 harmonic 420.9 1.4270   # SOURCE1 560 0.0000
    bond_coeff 215 harmonic 420.9 1.4270   # SOURCE1 560 0.0000
    bond_coeff 216 harmonic 317.1 1.7359   # CORR 66
    bond_coeff 217 harmonic 366.6 1.4715   # CORR 24
    bond_coeff 218 harmonic 377.4 1.4620   # SOURCE3 132 0.0210
    bond_coeff 219 harmonic 363.8 1.4740   # SOURCE1 601 0.0105
    bond_coeff 220 harmonic 363.8 1.4740   # SOURCE1 601 0.0105
    bond_coeff 221 harmonic 368.6 1.3401   # SOURCE4 24 0.0034
    bond_coeff 222 harmonic 389.3 1.4520   # SOURCE3 2 0.0000
    bond_coeff 223 harmonic 389.3 1.4520   # SOURCE3 2 same_as_c-cg
    bond_coeff 224 harmonic 350.1 1.0830   # SOURCE3 599 0.0037
    bond_coeff 225 harmonic 356.0 1.0790   # SOURCE3 40 0.0051
    bond_coeff 226 harmonic 347.2 1.0850   # SOURCE3 740 0.0039
    bond_coeff 227 harmonic 293.5 1.7660   # SOURCE3 6 0.0250
    bond_coeff 228 harmonic 573.8 1.2917   # CORR 81
    bond_coeff 229 harmonic 426.0 1.3800   # SOURCE3 56 0.0109
    bond_coeff 230 harmonic 299.0 1.4930   # SOURCE4 7 0.0148
    bond_coeff 231 harmonic 438.8 1.3710   # SOURCE3 440 0.0144
    bond_coeff 232 harmonic 431.6 1.3760   # SOURCE1 88 0.0000
    bond_coeff 233 harmonic 494.6 1.3350   # SOURCE3 203 0.0239
    bond_coeff 234 harmonic 427.4 1.3790   # SOURCE4 30 0.0126
    bond_coeff 235 harmonic 565.4 1.2960   # CORR 23
    bond_coeff 236 harmonic 449.0 1.3640   # SOURCE3 6 0.0040
    bond_coeff 237 harmonic 367.4 1.4262   # SOURCE4 133 0.0061
    bond_coeff 238 harmonic 408.5 1.3451   # CORR 121
    bond_coeff 239 harmonic 376.1 1.3700   # SOURCE3 86 0.0192
    bond_coeff 240 harmonic 318.2 1.7330   # SOURCE3 84 0.0161
    bond_coeff 241 harmonic 257.9 1.7681   # SOURCE4 8 0.0027
    bond_coeff 242 harmonic 279.3 1.7370   # SOURCE3 52 0.0194
    bond_coeff 243 harmonic 231.3 1.8113   # SOURCE4 16 0.0050
    bond_coeff 244 harmonic 248.1 1.7834   # CORR 55
    bond_coeff 245 harmonic 441.4 1.4120   # SOURCE2 1 0.0000
    bond_coeff 246 harmonic 350.8 1.4860   # SOURCE1 105 0.0000
    bond_coeff 247 harmonic 308.5 1.5290   # SOURCE1 18 0.0000
    bond_coeff 248 harmonic 418.3 1.4290   # SOURCE1 740 0.0069
    bond_coeff 249 harmonic 511.3 1.3666   # CORR 70
    bond_coeff 250 harmonic 387.9 1.4532   # CORR 249
    bond_coeff 251 harmonic 420.9 1.4270   # SOURCE1 560 0.0000
    bond_coeff 252 harmonic 420.9 1.4270   # SOURCE1 560 0.0000
    bond_coeff 253 harmonic 317.1 1.7359   # CORR 66
    bond_coeff 254 harmonic 366.6 1.4715   # CORR 24
    bond_coeff 255 harmonic 330.9 1.5054   # SOURCE4 10 0.0008
    bond_coeff 256 harmonic 350.1 1.0830   # SOURCE3 599 0.0037
    bond_coeff 257 harmonic 356.0 1.0790   # SOURCE3 40 0.0051
    bond_coeff 258 harmonic 347.2 1.0850   # SOURCE3 740 0.0039
    bond_coeff 259 harmonic 573.8 1.2917   # CORR 81
    bond_coeff 260 harmonic 426.0 1.3800   # SOURCE3 56 0.0109
    bond_coeff 261 harmonic 438.8 1.3710   # SOURCE3 440 0.0144
    bond_coeff 262 harmonic 494.6 1.3350   # SOURCE3 203 0.0239
    bond_coeff 263 harmonic 431.6 1.3760   # SOURCE1 88 0.0000
    bond_coeff 264 harmonic 565.4 1.2960   # CORR 23
    bond_coeff 265 harmonic 449.0 1.3640   # SOURCE3 6 0.0040
    bond_coeff 266 harmonic 408.5 1.3451   # CORR 121
    bond_coeff 267 harmonic 376.1 1.3700   # SOURCE3 86 0.0192
    bond_coeff 268 harmonic 318.2 1.7330   # SOURCE3 84 same_as_cc-pd
    bond_coeff 269 harmonic 279.3 1.7370   # SOURCE3 52 0.0194
    bond_coeff 270 harmonic 248.1 1.7834   # CORR 55
    bond_coeff 271 harmonic 390.5 1.4510   # SOURCE1 66 0.0060
    bond_coeff 272 harmonic 562.4 1.3380   # SOURCE1 543 0.0045
    bond_coeff 273 harmonic 415.6 1.4310   # SOURCE1 22 0.0000
    bond_coeff 274 harmonic 415.6 1.4310   # SOURCE1 22 0.0000
    bond_coeff 275 harmonic 292.6 1.7671   # SOURCE4 24 0.0062
    bond_coeff 276 harmonic 337.0 1.4993   # SOURCE4 5 0.0066
    bond_coeff 277 harmonic 323.0 1.5135   # SOURCE4 17 0.0024
    bond_coeff 278 harmonic 337.4 1.0919   # CORR 144
    bond_coeff 279 harmonic 341.5 1.0890   # SOURCE3 55 0.0056
    bond_coeff 280 harmonic 536.1 1.3113   # CORR 13
    bond_coeff 281 harmonic 599.8 1.2790   # SOURCE1 75 0.0000
    bond_coeff 282 harmonic 368.9 1.4249   # CORR 136
    bond_coeff 283 harmonic 373.8 1.4207   # SOURCE4 5 0.0051
    bond_coeff 284 harmonic 381.8 1.4140   # SOURCE3 7 0.0103
    bond_coeff 285 harmonic 574.0 1.2916   # CORR 42
    bond_coeff 286 harmonic 412.3 1.3901   # CORR 168
    bond_coeff 287 harmonic 402.9 1.3493   # CORR 37
    bond_coeff 288 harmonic 372.8 1.3727   # CORR 45
    bond_coeff 289 harmonic 259.1 1.8140   # SOUECE3 1
    bond_coeff 290 harmonic 256.5 1.8180   # SOURCE3 8 0.0108
    bond_coeff 291 harmonic 254.6 1.8210   # SOURCE3 6 0.0046
    bond_coeff 292 harmonic 272.3 1.7940   # SOURCE3 5 0.0045
    bond_coeff 293 harmonic 324.5 1.6800   # SOUECE3 1
    bond_coeff 294 harmonic 243.6 1.7906   # SOURCE4 10 0.0064
    bond_coeff 295 harmonic 239.7 1.7970   # SOURCE3 5 0.0082
    bond_coeff 296 harmonic 248.9 1.7820   # SOURCE3 5 0.0114
    bond_coeff 297 harmonic 387.9 1.3250   # SOURCE2 6 0.0147
    bond_coeff 298 harmonic 390.5 1.4510   # SOURCE1 66 0.0060
    bond_coeff 299 harmonic 415.6 1.4310   # SOURCE1 22 0.0000
    bond_coeff 300 harmonic 415.6 1.4310   # SOURCE1 22 0.0000
    bond_coeff 301 harmonic 337.4 1.0919   # CORR 144
    bond_coeff 302 harmonic 341.5 1.0890   # SOURCE3 55 0.0056
    bond_coeff 303 harmonic 536.1 1.3113   # CORR 13
    bond_coeff 304 harmonic 599.8 1.2790   # SOURCE1 75 same_as_ce-n2
    bond_coeff 305 harmonic 368.9 1.4249   # CORR 136
    bond_coeff 306 harmonic 574.0 1.2916   # CORR 42
    bond_coeff 307 harmonic 381.8 1.4140   # SOURCE3 7 same_as_ce-ne
    bond_coeff 308 harmonic 412.3 1.3901   # CORR 168
    bond_coeff 309 harmonic 402.9 1.3493   # CORR 37
    bond_coeff 310 harmonic 372.8 1.3727   # CORR 45
    bond_coeff 311 harmonic 259.1 1.8140   # SOUECE3 1 same_as_ce-p2
    bond_coeff 312 harmonic 256.5 1.8180   # SOURCE3 8 same_as_ce-pe
    bond_coeff 313 harmonic 254.6 1.8210   # SOURCE3 6 same_as_ce-px
    bond_coeff 314 harmonic 272.3 1.7940   # SOURCE3 5 same_as_ce-py
    bond_coeff 315 harmonic 324.5 1.6800   # SOUECE3 1 same_as_ce-s
    bond_coeff 316 harmonic 239.7 1.7970   # SOURCE3 5 same_as_ce-sx
    bond_coeff 317 harmonic 248.9 1.7820   # SOURCE3 5 same_as_ce-sy
    bond_coeff 318 harmonic 494.2 1.3770   # SOURCE1 42 0.0000
    bond_coeff 319 harmonic 949.5 1.1910   # SOURCE1 80 0.0015
    bond_coeff 320 harmonic 994.7 1.1430   # SOURCE1 316 0.0018
    bond_coeff 321 harmonic 509.5 1.3262   # SOURCE4 17 0.0009
    bond_coeff 322 harmonic 429.8 1.6210   # SOURCE3 11 0.2008
    bond_coeff 323 harmonic 310.5 1.1123   # SOURCE4 125 0.0023
    bond_coeff 324 harmonic 319.4 1.1053   # SOURCE4 42 0.0028
    bond_coeff 325 harmonic 325.1 1.1010   # SOURCE3 53 0.0102
    bond_coeff 326 harmonic 494.2 1.3770   # SOURCE1 42 0.0000
    bond_coeff 327 harmonic 994.7 1.1430   # SOURCE1 316 0.0018
    bond_coeff 328 harmonic 509.5 1.3262   # SOURCE4 17 same_as_cg-ne
    bond_coeff 329 harmonic 429.8 1.6210   # SOURCE3 11 same_as_cg-pe
    bond_coeff 330 harmonic 198.9 2.2090   # SOURCE3 4 0.0365
    bond_coeff 331 harmonic 143.3 2.2670   # SOURCE1 2 0.0395
    bond_coeff 332 harmonic 301.8 1.7550   # SOURCE1 64 0.0000
    bond_coeff 333 harmonic 292.0 1.7680   # SOURCE2 2 0.0070
    bond_coeff 334 harmonic 298.6 1.6480   # SOURCE2 2 0.0500
    bond_coeff 335 harmonic 163.5 2.5500   # SOURCE1 6 0.0893
    bond_coeff 336 harmonic 431.6 1.6300   # SOUECE3 1
    bond_coeff 337 harmonic 263.4 1.8190   # SOURCE3 6 0.1020
    bond_coeff 338 harmonic 290.4 1.7800   # SOURCE4 5 0.0021
    bond_coeff 339 harmonic 344.2 1.7140   # SOURCE4 5 0.0005
    bond_coeff 340 harmonic 311.1 1.7530   # SOURCE3 4 0.0098
    bond_coeff 341 harmonic 253.2 1.8350   # SOURCE3 7 0.2083
    bond_coeff 342 harmonic 303.2 1.7630   # SOURCE3 1 0.0000
    bond_coeff 343 harmonic 250.1 1.8400   # SOURCE2 1 0.0000
    bond_coeff 344 harmonic 557.6 1.4830   # SOURCE3 4 0.0000
    bond_coeff 345 harmonic 309.7 1.6900   # SOURCE2 1 0.0000
    bond_coeff 346 harmonic 278.8 1.7300   # SOURCE3 4 0.0000
    bond_coeff 347 harmonic 217.5 2.0700   # SOURCE3 6 0.0108
    bond_coeff 348 harmonic 249.4 2.0080   # SOURCE1 111 0.0000
    bond_coeff 349 harmonic 249.4 2.0080   # SOURCE1 111 0.0000
    bond_coeff 350 harmonic 249.4 2.0080   # SOURCE1 111 0.0000
    bond_coeff 351 harmonic 255.6 1.9970   # SOURCE1 46 0.0000
    bond_coeff 352 harmonic 208.7 2.0720   # SOURCE1 6 0.0000
    bond_coeff 353 harmonic 172.7 2.1610   # SOURCE2 1 0.0000
    bond_coeff 354 harmonic 208.7 2.0720   # SOURCE1 6 0.0000
    bond_coeff 355 harmonic 208.7 2.0720   # SOURCE1 6 0.0000
    bond_coeff 356 harmonic 208.7 2.0720   # SOURCE1 6 0.0000
    bond_coeff 357 harmonic 208.7 2.0720   # SOURCE1 6 0.0000
    bond_coeff 358 harmonic 208.7 2.0720   # SOURCE1 6 0.0000
    bond_coeff 359 harmonic 208.7 2.0720   # SOURCE1 6 0.0000
    bond_coeff 360 harmonic 374.6 1.4200   # SOUECE3 1
    bond_coeff 361 harmonic 255.5 1.5460   # SOURCE3 4 0.0388
    bond_coeff 362 harmonic 478.2 1.3450   # SOURCE1 1235 0.0215
    bond_coeff 363 harmonic 412.1 1.3906   # CORR 124
    bond_coeff 364 harmonic 412.1 1.3906   # CORR 124
    bond_coeff 365 harmonic 408.2 1.3932   # CORR 52
    bond_coeff 366 harmonic 408.2 1.3932   # CORR 52
    bond_coeff 367 harmonic 260.1 1.5400   # SOUECE3 1
    bond_coeff 368 harmonic 648.0 1.2140   # SOURCE1 3682 0.0165
    bond_coeff 369 harmonic 466.4 1.3060   # SOURCE1 271 0.0041
    bond_coeff 370 harmonic 411.3 1.3430   # SOURCE1 1044 0.0171
    bond_coeff 371 harmonic 210.3 1.9000   # SOUECE3 1
    bond_coeff 372 harmonic 219.0 1.8830   # SOURCE3 6 0.0129
    bond_coeff 373 harmonic 220.6 1.8800   # SOUECE3 1
    bond_coeff 374 harmonic 219.8 1.8815   # SOURCE4 11 0.0078
    bond_coeff 375 harmonic 346.5 1.4900   # SOURCE1 242 0.0010
    bond_coeff 376 harmonic 419.3 1.4282   # SOURCE4 7 0.0034
    bond_coeff 377 harmonic 204.9 1.9110   # SOURCE3 3 0.0025
    bond_coeff 378 harmonic 204.9 1.9110   # SOURCE3 3 same_as_c-pe
    bond_coeff 379 harmonic 420.5 1.3840   # SOURCE4 7 0.0181
    bond_coeff 380 harmonic 486.7 1.3398   # SOURCE4 70 0.0062
    bond_coeff 381 harmonic 208.3 1.9040   # SOURCE3 1 0.0000
    bond_coeff 382 harmonic 227.6 1.8670   # SOURCE3 6 0.0199
    bond_coeff 383 harmonic 346.5 1.4900   # SOURCE1 242 0.0010
    bond_coeff 384 harmonic 328.9 1.6750   # SOURCE1 401 0.0128
    bond_coeff 385 harmonic 200.4 1.8700   # SOUECE3 1
    bond_coeff 386 harmonic 200.4 1.8700   # SOUECE3 1
    bond_coeff 387 harmonic 249.6 1.7810   # SOURCE3 6 0.0171
    bond_coeff 388 harmonic 261.9 1.7620   # SOURCE1 20 0.0000
    bond_coeff 389 harmonic 193.3 1.8850   # SOURCE3 5 0.0088
    bond_coeff 390 harmonic 202.8 1.8650   # SOURCE3 5 0.0085
    bond_coeff 391 harmonic 653.7 1.2940   # SOURCE1 10 0.0000
    bond_coeff 392 harmonic 327.3 1.5090   # SOURCE1 20 0.0000
    bond_coeff 393 harmonic 353.0 1.0810   # SOURCE2 3 0.0111
    bond_coeff 394 harmonic 568.1 1.3350   # SOURCE1 25 0.0000
    bond_coeff 395 harmonic 323.5 1.5130   # SOURCE1 50 0.0000
    bond_coeff 396 harmonic 344.3 1.0870   # SOURCE3 2 0.0000
    bond_coeff 397 harmonic 328.3 1.5080   # SOURCE1 2536 as
    bond_coeff 398 harmonic 337.3 1.4990   # SOURCE1 1204 0.0183
    bond_coeff 399 harmonic 321.5 1.5150   # SOURCE3 2 0.0000
    bond_coeff 400 harmonic 347.2 1.3580   # SOURCE2 3 0.0050
    bond_coeff 401 harmonic 344.3 1.0870   # SOURCE3 10 0.0017
    bond_coeff 402 harmonic 350.1 1.0830   # SOURCE3 2 0.0000
    bond_coeff 403 harmonic 345.8 1.0860   # SOURCE3 44 0.0011
    bond_coeff 404 harmonic 347.2 1.0850   # SOURCE4 5 0.0002
    bond_coeff 405 harmonic 309.1 1.4820   # SOURCE3 2 0.0000
    bond_coeff 406 harmonic 318.7 1.4720   # SOURCE1 134 0.0000
    bond_coeff 407 harmonic 350.6 1.4411   # SOURCE4 11 0.0092
    bond_coeff 408 harmonic 329.0 1.4616   # SOURCE4 11 0.0016
    bond_coeff 409 harmonic 336.7 1.4541   # SOURCE4 83 0.0076
    bond_coeff 410 harmonic 387.4 1.3610   # SOURCE3 3 0.0018
    bond_coeff 411 harmonic 320.1 1.4200   # SOURCE3 7 0.0222
    bond_coeff 412 harmonic 227.6 1.8670   # SOURCE2 1 0.0000
    bond_coeff 413 harmonic 225.3 1.8220   # SOURCE2 1 0.0000
    bond_coeff 414 harmonic 283.7 1.7310   # SOURCE2 1 0.0000
    bond_coeff 415 harmonic 229.2 1.8150   # SOURCE2 1 0.0000
    bond_coeff 416 harmonic 286.8 1.5540   # SOURCE1 742 0.0041
    bond_coeff 417 harmonic 355.5 1.3509   # SOURCE4 8 0.0047
    bond_coeff 418 harmonic 330.4 1.0970   # SOURCE3 17 0.0058
    bond_coeff 419 harmonic 335.8 1.0931   # SOURCE4 80 0.0019
    bond_coeff 420 harmonic 334.5 1.0940   # SOURCE3 63 0.0014
    bond_coeff 421 harmonic 321.3 1.4693   # SOURCE4 250 0.0102
    bond_coeff 422 harmonic 307.2 1.4840   # SOURCE1 21 0.0000
    bond_coeff 423 harmonic 325.2 1.4150   # SOURCE3 2 0.0000
    bond_coeff 424 harmonic 308.6 1.4316   # SOURCE4 23 0.0136
    bond_coeff 425 harmonic 209.6 1.8514   # SOURCE4 9 0.0166
    bond_coeff 426 harmonic 211.3 1.8481   # SOURCE4 78 0.0080
    bond_coeff 427 harmonic 487.8 1.3391   # SOURCE4 32 0.0045
    bond_coeff 428 harmonic 375.7 1.4100   # SOUECE3 1
    bond_coeff 429 harmonic 337.5 1.4440   # SOURCE3 5 0.0377
    bond_coeff 430 harmonic 380.6 1.4060   # SOURCE1 9 0.0000
    bond_coeff 431 harmonic 391.7 1.3970   # SOURCE3 3 0.0112
    bond_coeff 432 harmonic 526.8 1.3080   # SOURCE3 2 0.0000
    bond_coeff 433 harmonic 374.5 1.4110   # SOURCE3 7 0.0611
    bond_coeff 434 harmonic 357.1 1.4260   # SOURCE3 3 0.0085
    bond_coeff 435 harmonic 314.4 1.4670   # SOURCE2 1 0.0000
    bond_coeff 436 harmonic 442.2 1.3300   # SOUECE3 1
    bond_coeff 437 harmonic 305.4 1.4440   # SOURCE3 1 0.0000
    bond_coeff 438 harmonic 326.2 1.4230   # SOURCE3 2 0.0000
    bond_coeff 439 harmonic 287.3 1.5360   # SOURCE3 7 0.2054
    bond_coeff 440 harmonic 254.5 1.5780   # SOURCE2 8 0.0103
    bond_coeff 441 harmonic 246.0 1.5900   # SOUECE3 1
    bond_coeff 442 harmonic 253.8 1.5790   # SOURCE1 72 0.0000
    bond_coeff 443 harmonic 244.4 1.6430   # SOURCE2 1 0.0000
    bond_coeff 444 harmonic 233.3 1.6600   # SOUECE3 1
    bond_coeff 445 harmonic 282.4 1.5910   # SOURCE2 4 0.0065
    bond_coeff 446 harmonic 312.1 1.5560   # SOURCE2 5 0.0220
    bond_coeff 447 harmonic 240.4 1.6490   # SOURCE3 1 0.0000
    bond_coeff 448 harmonic 250.5 1.6340   # SOURCE3 3 0.0156
    bond_coeff 449 harmonic 455.1 0.9860   # SOURCE2 1 0.0000
    bond_coeff 450 harmonic 375.5 1.0290   # SOURCE3 108 0.0096
    bond_coeff 451 harmonic 394.1 1.0180   # SOURCE3 157 0.0086
    bond_coeff 452 harmonic 410.2 1.0090   # SOURCE3 149 0.0098
    bond_coeff 453 harmonic 369.0 1.0330   # SOURCE3 264 0.0082
    bond_coeff 454 harmonic 406.6 1.0110   # SOURCE3 46 0.0107
    bond_coeff 455 harmonic 401.2 1.0140   # SOURCE3 209 0.0091
    bond_coeff 456 harmonic 385.6 1.0230   # SOURCE3 1 0.0000
    bond_coeff 457 harmonic 357.9 0.9810   # SOURCE3 1 0.0000
    bond_coeff 458 harmonic 369.6 0.9740   # SOURCE3 367 0.0105
    bond_coeff 459 harmonic 385.1 1.3360   # SOURCE3 87 0.1706
    bond_coeff 460 harmonic 303.1 1.4090   # SOURCE3 101 0.0617
    bond_coeff 461 harmonic 368.7 1.3490   # SOURCE3 17 0.1577
    bond_coeff 462 harmonic 305.0 1.4070   # SOURCE3 7 0.0062
    bond_coeff 463 harmonic 286.4 1.3530   # SOURCE3 1 0.0000
    bond_coeff 464 harmonic 266.4 1.3750   # SOURCE3 5 0.0004
    bond_coeff 465 harmonic 280.8 1.3590   # SOURCE3 5 0.0015
    bond_coeff 466 harmonic 302.2 1.3370   # SOURCE3 98 0.0486
    bond_coeff 467 harmonic 109.2 2.9170   # SOURCE1 1 0.0000
    bond_coeff 468 harmonic 302.1 2.0600   # SOUECE3 1
    bond_coeff 469 harmonic 182.6 2.3040   # SOURCE3 6 0.1186
    bond_coeff 470 harmonic 278.3 2.0980   # SOURCE3 5 0.0156
    bond_coeff 471 harmonic 231.8 2.1850   # SOURCE3 3 0.0437
    bond_coeff 472 harmonic 246.6 2.1550   # SOURCE3 3 0.0168
    bond_coeff 473 harmonic 260.5 2.1290   # SOURCE3 8 0.1276
    bond_coeff 474 harmonic 249.2 2.1500   # SOURCE3 1 0.0000
    bond_coeff 475 harmonic 211.0 2.2310   # SOURCE3 1 0.0000
    bond_coeff 476 harmonic 323.8 1.9800   # SOUECE3 1
    bond_coeff 477 harmonic 247.9 2.1010   # SOURCE3 2 0.0000
    bond_coeff 478 harmonic 233.6 2.1290   # SOURCE3 3 0.0146
    bond_coeff 479 harmonic 108.2 2.6430   # SOURCE3 6 0.0297
    bond_coeff 480 harmonic 123.6 2.5660   # SOURCE3 3 0.0016
    bond_coeff 481 harmonic 183.0 2.3520   # SOURCE3 4 0.2600
    bond_coeff 482 harmonic 117.3 2.5960   # SOURCE3 3 0.0143
    bond_coeff 483 harmonic 175.1 2.4300   # SOUECE3 1
    bond_coeff 484 harmonic 82.8 2.8700   # SOUECE3 1
    bond_coeff 485 harmonic 82.8 2.8700   # SOURCE3 1 0.0000
    bond_coeff 486 harmonic 138.5 2.5600   # SOUECE3 1
    bond_coeff 487 harmonic 135.9 2.5710   # SOURCE3 3 0.0065
    bond_coeff 488 harmonic 1221.7 1.1240   # SOURCE1 19 0.0000
    bond_coeff 489 harmonic 857.4 1.2160   # SOURCE1 19 0.0000
    bond_coeff 490 harmonic 535.7 1.3500   # SOUECE3 1
    bond_coeff 491 harmonic 518.2 1.3600   # SOUECE3 1
    bond_coeff 492 harmonic 535.7 1.3500   # SOUECE3 1
    bond_coeff 493 harmonic 857.4 1.2160   # SOURCE1 38 0.0000
    bond_coeff 494 harmonic 857.4 1.2160   # SOURCE1 38 0.0000
    bond_coeff 495 harmonic 751.9 1.2520   # SOURCE2 1 0.0000
    bond_coeff 496 harmonic 751.9 1.2520   # SOURCE2 1 same_as_n1-ne
    bond_coeff 497 harmonic 553.9 1.3400   # SOUECE3 1
    bond_coeff 498 harmonic 454.8 1.4000   # SOUECE3 1
    bond_coeff 499 harmonic 617.5 1.2770   # SOURCE3 5 0.0438
    bond_coeff 500 harmonic 569.8 1.3000   # SOUECE3 1
    bond_coeff 501 harmonic 550.5 1.3100   # SOUECE3 1
    bond_coeff 502 harmonic 358.8 1.6780   # SOURCE3 2 0.0282
    bond_coeff 503 harmonic 376.7 1.6600   # SOUECE3 1
    bond_coeff 504 harmonic 353.0 1.6800   # SOURCE3 0
    bond_coeff 505 harmonic 482.7 1.5710   # SOURCE1 132 0.0000
    bond_coeff 506 harmonic 604.3 1.4490   # SOURCE2 2 0.0010
    bond_coeff 507 harmonic 328.7 1.6590   # SOURCE3 6 0.0789
    bond_coeff 508 harmonic 336.8 1.6500   # SOUECE3 1
    bond_coeff 509 harmonic 670.3 1.4160   # SOURCE2 2 0.0000
    bond_coeff 510 harmonic 376.1 1.6100   # SOUECE3 1
    bond_coeff 511 harmonic 376.1 1.6100   # SOUECE3 1
    bond_coeff 512 harmonic 702.7 1.2710   # SOURCE3 27 0.0347
    bond_coeff 513 harmonic 574.8 1.3290   # SOURCE2 1 0.0000
    bond_coeff 514 harmonic 200.8 1.6790   # SOURCE3 7 0.3138
    bond_coeff 515 harmonic 503.9 1.3685   # SOURCE4 18 0.0066
    bond_coeff 516 harmonic 743.9 1.2550   # SOURCE1 13 0.0000
    bond_coeff 517 harmonic 743.9 1.2550   # SOURCE1 13 same_as_n2_nc
    bond_coeff 518 harmonic 685.5 1.2780   # SOURCE3 30 0.0302
    bond_coeff 519 harmonic 685.5 1.2780   # SOURCE3 30 same_as_n2-ne
    bond_coeff 520 harmonic 525.1 1.3560   # SOURCE3 22 0.0300
    bond_coeff 521 harmonic 231.9 1.6260   # SOURCE3 4 0.1933
    bond_coeff 522 harmonic 789.9 1.2090   # SOURCE3 20 0.0344
    bond_coeff 523 harmonic 416.2 1.3940   # SOURCE1 67 0.0000
    bond_coeff 524 harmonic 400.5 1.4060   # SOURCE3 10 0.0147
    bond_coeff 525 harmonic 438.3 1.6050   # SOURCE3 35 0.0737
    bond_coeff 526 harmonic 286.5 1.7640   # SOURCE3 7 0.0374
    bond_coeff 527 harmonic 317.7 1.7240   # SOUECE3 1
    bond_coeff 528 harmonic 445.8 1.5990   # SOURCE1 7 0.0000
    bond_coeff 529 harmonic 527.9 1.5400   # SOURCE3 20 0.1392
    bond_coeff 530 harmonic 527.9 1.5400   # SOURCE3 20 same_as_n2-pe
    bond_coeff 531 harmonic 499.0 1.5120   # SOURCE2 1 0.0000
    bond_coeff 532 harmonic 376.1 1.6100   # SOUECE3 1
    bond_coeff 533 harmonic 458.1 1.5410   # SOURCE1 37 0.0000
    bond_coeff 534 harmonic 444.6 1.5513   # SOURCE4 5 0.0011
    bond_coeff 535 harmonic 266.6 1.7380   # SOURCE3 5 0.0511
    bond_coeff 536 harmonic 331.4 1.6560   # SOURCE1 36 0.0000
    bond_coeff 537 harmonic 383.6 1.4540   # SOURCE1 44 0.0000
    bond_coeff 538 harmonic 434.9 1.4140   # SOURCE1 13 0.0000
    bond_coeff 539 harmonic 426.7 1.4200   # SOURCE1 68 0.0000
    bond_coeff 540 harmonic 426.7 1.4200   # SOURCE1 68 0.0000
    bond_coeff 541 harmonic 394.5 1.4450   # SOURCE3 3 0.0208
    bond_coeff 542 harmonic 564.0 1.3030   # SOURCE3 4 0.1217
    bond_coeff 543 harmonic 413.5 1.3960   # SOURCE1 28 0.0000
    bond_coeff 544 harmonic 359.6 1.4400   # SOURCE1 34 0.0315
    bond_coeff 545 harmonic 366.6 1.6700   # SOUECE3 1
    bond_coeff 546 harmonic 312.8 1.7300   # SOURCE1 40 0.0000
    bond_coeff 547 harmonic 341.1 1.6970   # SOURCE1 88 0.0000
    bond_coeff 548 harmonic 373.6 1.6630   # SOURCE1 501 0.0086
    bond_coeff 549 harmonic 338.1 1.7003   # SOURCE4 6 0.0044
    bond_coeff 550 harmonic 232.3 1.7920   # SOURCE3 3 0.0178
    bond_coeff 551 harmonic 251.3 1.7610   # SOURCE3 6 0.0766
    bond_coeff 552 harmonic 353.8 1.6320   # SOURCE1 99 0.0136
    bond_coeff 553 harmonic 265.9 1.7390   # SOURCE3 3 0.0154
    bond_coeff 554 harmonic 277.9 1.7220   # SOURCE3 5 0.0207
    bond_coeff 555 harmonic 297.3 1.6964   # SOURCE4 226 0.0081
    bond_coeff 556 harmonic 349.9 1.4840   # SOURCE3 4 0.0089
    bond_coeff 557 harmonic 407.0 1.4350   # SOURCE3 9 0.0390
    bond_coeff 558 harmonic 369.7 1.4660   # SOURCE3 5 0.0108
    bond_coeff 559 harmonic 354.2 1.4800   # SOUECE3 1
    bond_coeff 560 harmonic 463.6 1.3610   # SOURCE3 3 0.0041
    bond_coeff 561 harmonic 408.2 1.4000   # SOURCE3 3 0.0115
    bond_coeff 562 harmonic 381.8 1.4210   # SOURCE3 5 0.0249
    bond_coeff 563 harmonic 185.9 1.9420   # SOURCE3 10 0.0643
    bond_coeff 564 harmonic 215.1 1.8800   # SOURCE3 5 0.0146
    bond_coeff 565 harmonic 187.6 1.9380   # SOURCE3 1 0.0000
    bond_coeff 566 harmonic 242.9 1.8300   # SOURCE3 5 0.0087
    bond_coeff 567 harmonic 204.2 1.9020   # SOURCE3 4 0.0000
    bond_coeff 568 harmonic 210.3 1.8320   # SOURCE3 3 0.0004
    bond_coeff 569 harmonic 151.0 1.9720   # SOURCE3 3 0.0198
    bond_coeff 570 harmonic 172.7 1.9140   # SOURCE3 5 0.0432
    bond_coeff 571 harmonic 221.5 1.8110   # SOURCE3 3 0.0027
    bond_coeff 572 harmonic 221.0 1.8120   # SOURCE3 5 0.0064
    bond_coeff 573 harmonic 453.3 1.4010   # SOURCE1 40 0.0000
    bond_coeff 574 harmonic 546.5 1.3440   # SOURCE4 5 0.0070
    bond_coeff 575 harmonic 535.7 1.3500   # SOURCE3 152 0.0180
    bond_coeff 576 harmonic 535.7 1.3500   # SOURCE3 152 0.0180
    bond_coeff 577 harmonic 453.3 1.4010   # SOURCE1 40 0.0000
    bond_coeff 578 harmonic 401.9 1.4390   # SOURCE3 9 0.0289
    bond_coeff 579 harmonic 644.3 1.2650   # SOURCE1 25 0.0347
    bond_coeff 580 harmonic 412.2 1.3970   # SOURCE3 9 0.0217
    bond_coeff 581 harmonic 355.2 1.4440   # SOURCE3 45 0.0423
    bond_coeff 582 harmonic 297.8 1.7490   # SOURCE3 11 0.0192
    bond_coeff 583 harmonic 288.0 1.7620   # SOURCE3 8 0.0113
    bond_coeff 584 harmonic 492.4 1.5640   # SOURCE3 5 0.2161
    bond_coeff 585 harmonic 325.3 1.7150   # SOURCE3 11 0.0238
    bond_coeff 586 harmonic 311.1 1.7320   # SOURCE3 81 0.0207
    bond_coeff 587 harmonic 311.1 1.7320   # SOURCE3 81 same_as_na-pc
    bond_coeff 588 harmonic 327.8 1.7120   # SOURCE3 2 0.0000
    bond_coeff 589 harmonic 248.7 1.7650   # SOURCE3 8 0.0095
    bond_coeff 590 harmonic 231.7 1.7930   # SOURCE3 10 0.0421
    bond_coeff 591 harmonic 274.3 1.7270   # SOURCE3 10 0.0201
    bond_coeff 592 harmonic 278.6 1.7210   # SOURCE3 9 0.0113
    bond_coeff 593 harmonic 270.1 1.7330   # SOURCE3 38 0.0412
    bond_coeff 594 harmonic 274.3 1.7270   # SOURCE3 1
    bond_coeff 595 harmonic 550.2 1.3420   # SOURCE1 15 0.0314
    bond_coeff 596 harmonic 461.1 1.5870   # SOURCE1 162 0.0091
    bond_coeff 597 harmonic 486.8 1.3790   # SOURCE3 9 0.0164
    bond_coeff 598 harmonic 602.9 1.3150   # SOURCE3 9 0.0221
    bond_coeff 599 harmonic 414.9 1.3950   # SOURCE1 46 0.0188
    bond_coeff 600 harmonic 433.5 1.5600   # SOURCE1 74 0.0000
    bond_coeff 601 harmonic 439.8 1.5550   # SOURCE3 2
    bond_coeff 602 harmonic 486.8 1.3790   # SOURCE3 9 0.0164
    bond_coeff 603 harmonic 414.9 1.3950   # SOURCE1 46 0.0188
    bond_coeff 604 harmonic 433.5 1.5600   # SOURCE1 74 0.0000
    bond_coeff 605 harmonic 439.8 1.5550   # SOURCE3 2
    bond_coeff 606 harmonic 355.3 1.4790   # SOURCE3 19 0.1705
    bond_coeff 607 harmonic 721.6 1.2635   # SOURCE4 25 0.0034
    bond_coeff 608 harmonic 736.4 1.2280   # SOURCE3 40 0.0255
    bond_coeff 609 harmonic 493.9 1.5630   # SOURCE3 14 0.1325
    bond_coeff 610 harmonic 327.8 1.7120   # SOURCE3 28 0.1076
    bond_coeff 611 harmonic 336.6 1.7020   # SOURCE3 11 0.0883
    bond_coeff 612 harmonic 425.4 1.6157   # SOURCE4 10 0.0094
    bond_coeff 613 harmonic 463.5 1.5370   # SOURCE3 22 0.1708
    bond_coeff 614 harmonic 207.3 1.8380   # SOURCE3 7 0.1060
    bond_coeff 615 harmonic 257.1 1.7520   # SOURCE3 7 0.0814
    bond_coeff 616 harmonic 355.3 1.4790   # SOURCE3 19 same_as_ne-ne
    bond_coeff 617 harmonic 736.4 1.2280   # SOURCE3 40 same_as_ne-o
    bond_coeff 618 harmonic 493.9 1.5630   # SOURCE3 14 same_as_ne-p2
    bond_coeff 619 harmonic 327.8 1.7120   # SOURCE3 28 same_as_ne-pe
    bond_coeff 620 harmonic 336.6 1.7020   # SOURCE3 11 same_as_ne-px
    bond_coeff 621 harmonic 425.4 1.6157   # SOURCE4 10 same_as_ne-py
    bond_coeff 622 harmonic 463.5 1.5370   # SOURCE3 22 same_as_ne-s
    bond_coeff 623 harmonic 207.3 1.8380   # SOURCE3 7 same_as_ne-sx
    bond_coeff 624 harmonic 257.1 1.7520   # SOURCE3 7 same_as_ne-sy
    bond_coeff 625 harmonic 453.3 1.4010   # SOURCE1 40 0.0000
    bond_coeff 626 harmonic 477.4 1.3850   # SOURCE4 7 0.0036
    bond_coeff 627 harmonic 596.2 1.2870   # SOURCE3 3 0.0450
    bond_coeff 628 harmonic 389.9 1.4144   # SOURCE4 19 0.0064
    bond_coeff 629 harmonic 387.8 1.4161   # SOURCE4 6 0.0039
    bond_coeff 630 harmonic 357.8 1.6790   # SOURCE3 17 0.0872
    bond_coeff 631 harmonic 312.8 1.7300   # SOURCE3 3 0.0016
    bond_coeff 632 harmonic 333.1 1.7060   # SOURCE3 3 0.0008
    bond_coeff 633 harmonic 365.6 1.6710   # SOURCE3 3 0.0007
    bond_coeff 634 harmonic 237.0 1.7840   # SOURCE3 3 0.0076
    bond_coeff 635 harmonic 259.1 1.7490   # SOURCE3 3 0.0203
    bond_coeff 636 harmonic 297.2 1.6965   # SOURCE4 33 0.0062
    bond_coeff 637 harmonic 288.3 1.7080   # SOURCE3 1 0.0000
    bond_coeff 638 harmonic 288.3 1.7080   # SOURCE1 52 0.0015
    bond_coeff 639 harmonic 283.5 1.7144   # SOURCE4 80 0.0066
    bond_coeff 640 harmonic 553.9 1.3400   # SOUECE3 1
    bond_coeff 641 harmonic 499.7 1.3710   # SOURCE3 9 0.0200
    bond_coeff 642 harmonic 443.3 1.4080   # SOURCE3 5 0.0087
    bond_coeff 643 harmonic 410.8 1.4320   # SOURCE3 5 0.0098
    bond_coeff 644 harmonic 469.7 1.3900   # SOURCE3 5 0.0038
    bond_coeff 645 harmonic 486.8 1.3790   # SOURCE3 11 0.0071
    bond_coeff 646 harmonic 523.7 1.3568   # CORR 76
    bond_coeff 647 harmonic 523.7 1.3568   # CORR 76
    bond_coeff 648 harmonic 451.2 1.4025   # SOURCE4 20 0.0074
    bond_coeff 649 harmonic 381.2 1.4560   # SOURCE3 4 0.0327
    bond_coeff 650 harmonic 646.6 1.2640   # SOURCE3 9 0.0381
    bond_coeff 651 harmonic 395.4 1.4100   # SOURCE3 6 0.0106
    bond_coeff 652 harmonic 138.3 1.8240   # SOURCE3 1 0.0000
    bond_coeff 653 harmonic 761.2 1.2190   # SOURCE1 1838 0.0049
    bond_coeff 654 harmonic 400.5 1.4060   # SOURCE2 1 0.0000
    bond_coeff 655 harmonic 379.5 1.4229   # SOURCE4 53 0.0076
    bond_coeff 656 harmonic 306.3 1.7380   # SOURCE3 10 0.2231
    bond_coeff 657 harmonic 234.7 1.8440   # SOURCE3 3 0.0005
    bond_coeff 658 harmonic 220.4 1.8700   # SOURCE3 3 0.0006
    bond_coeff 659 harmonic 240.5 1.8340   # SOURCE3 4 0.0020
    bond_coeff 660 harmonic 263.8 1.7420   # SOURCE3 2 0.0000
    bond_coeff 661 harmonic 395.0 1.4103   # SOURCE4 30 0.0112
    bond_coeff 662 harmonic 143.0 1.9960   # SOURCE3 3 0.0313
    bond_coeff 663 harmonic 149.6 1.9760   # SOURCE3 3 0.0520
    bond_coeff 664 harmonic 225.4 1.8040   # SOURCE3 1 0.0000
    bond_coeff 665 harmonic 212.4 1.8280   # SOURCE3 3 0.0244
    bond_coeff 666 harmonic 310.3 1.7330   # SOURCE3 8 0.0217
    bond_coeff 667 harmonic 282.2 1.7700   # SOURCE3 9 0.0118
    bond_coeff 668 harmonic 309.5 1.7340   # SOURCE3 1 0.0000
    bond_coeff 669 harmonic 331.3 1.7080   # SOURCE4 6 0.0022
    bond_coeff 670 harmonic 304.8 1.7400   # SOURCE3 3 0.0010
    bond_coeff 671 harmonic 304.8 1.7400   # SOURCE3 3 same_as_n-pc
    bond_coeff 672 harmonic 247.5 1.7670   # SOURCE3 3 0.0011
    bond_coeff 673 harmonic 238.2 1.7820   # SOURCE3 4 0.0214
    bond_coeff 674 harmonic 283.0 1.7151   # SOURCE4 13 0.0138
    bond_coeff 675 harmonic 273.6 1.7280   # SOURCE3 4 0.0128
    bond_coeff 676 harmonic 281.6 1.7170   # SOURCE3 7 0.0133
    bond_coeff 677 harmonic 282.9 1.7152   # SOURCE4 51 0.0079
    bond_coeff 678 harmonic 340.5 1.4690   # SOURCE3 1 0.0000
    bond_coeff 679 harmonic 355.8 1.4547   # SOURCE4 19 0.0050
    bond_coeff 680 harmonic 316.8 1.6300   # SOURCE3 8 0.0916
    bond_coeff 681 harmonic 278.8 1.6770   # SOURCE3 3 0.0148
    bond_coeff 682 harmonic 307.4 1.6410   # SOURCE3 4 0.0092
    bond_coeff 683 harmonic 321.2 1.6250   # SOURCE3 92 0.0451
    bond_coeff 684 harmonic 332.1 1.6130   # SOURCE3 79 0.0138
    bond_coeff 685 harmonic 190.0 1.8120   # SOURCE3 2 0.0000
    bond_coeff 686 harmonic 256.3 1.6954   # SOURCE4 10 0.0091
    bond_coeff 687 harmonic 344.1 1.5880   # SOURCE3 13 0.0091
    bond_coeff 688 harmonic 258.6 1.6920   # SOURCE3 2 0.0003
    bond_coeff 689 harmonic 265.6 1.6820   # SOURCE3 4 0.0131
    bond_coeff 690 harmonic 290.4 1.6490   # SOURCE4 33 0.0044
    bond_coeff 691 harmonic 384.3 1.4300   # SOURCE3 2 0.0500
    bond_coeff 692 harmonic 294.6 1.5170   # SOURCE3 2 0.0000
    bond_coeff 693 harmonic 306.3 1.5040   # SOURCE3 3 0.0117
    bond_coeff 694 harmonic 449.7 1.5080   # SOURCE3 17 0.0306
    bond_coeff 695 harmonic 440.4 1.5150   # SOURCE3 35 0.0297
    bond_coeff 696 harmonic 456.4 1.5030   # SOURCE3 42 0.0749
    bond_coeff 697 harmonic 487.7 1.4810   # SOURCE1 263 0.0205
    bond_coeff 698 harmonic 432.6 1.5210   # SOURCE3 20 0.0171
    bond_coeff 699 harmonic 432.6 1.5210   # SOURCE3 20 same_as_o-pe
    bond_coeff 700 harmonic 459.2 1.5010   # SOURCE3 37 0.0160
    bond_coeff 701 harmonic 477.5 1.4880   # SOURCE3 63 0.0091
    bond_coeff 702 harmonic 194.8 1.8020   # SOURCE3 2 0.0000
    bond_coeff 703 harmonic 333.6 1.5990   # SOURCE3 3 0.0707
    bond_coeff 704 harmonic 448.7 1.4970   # SOURCE1 90 0.0000
    bond_coeff 705 harmonic 541.1 1.4360   # SOURCE1 1038 0.0128
    bond_coeff 706 harmonic 328.0 1.6050   # SOURCE3 2 0.0000
    bond_coeff 707 harmonic 343.6 1.4660   # SOURCE1 20 0.0067
    bond_coeff 708 harmonic 371.9 1.5730   # SOURCE1 16 0.0000
    bond_coeff 709 harmonic 272.2 1.6860   # SOURCE3 6 0.0201
    bond_coeff 710 harmonic 311.6 1.6360   # SOURCE3 4 0.0057
    bond_coeff 711 harmonic 342.5 1.6020   # SOURCE1 248 0.0400
    bond_coeff 712 harmonic 328.5 1.6170   # SOURCE3 17 0.0139
    bond_coeff 713 harmonic 195.8 1.8000   # SOURCE3 3 0.0052
    bond_coeff 714 harmonic 398.5 1.5370   # SOURCE3 3 0.0501
    bond_coeff 715 harmonic 253.9 1.6990   # SOURCE3 8 0.0223
    bond_coeff 716 harmonic 355.0 1.5770   # SOURCE1 75 0.0030
    bond_coeff 717 harmonic 273.6 1.6710   # SOURCE3 3 0.0106
    bond_coeff 718 harmonic 250.5 1.7040   # SOURCE3 9 0.0277
    bond_coeff 719 harmonic 253.9 1.6990   # SOURCE3 1 0.0000
    bond_coeff 720 harmonic 434.2 1.5080   # SOURCE3 40 0.0130
    bond_coeff 721 harmonic 493.0 1.4660   # SOURCE3 92 0.0114
    bond_coeff 722 harmonic 490.3 1.7860   # SOURCE3 25 0.3488
    bond_coeff 723 harmonic 211.9 2.1520   # SOURCE3 9 0.1777
    bond_coeff 724 harmonic 200.4 2.1790   # SOUECE3 1
    bond_coeff 725 harmonic 199.9 2.1800   # SOUECE3 1
    bond_coeff 726 harmonic 401.6 1.8670   # SOURCE3 16 0.3571
    bond_coeff 727 harmonic 401.6 1.8670   # SOURCE3 16 same_as_p2-pe
    bond_coeff 728 harmonic 361.6 1.7720   # SOURCE3 26 0.3014
    bond_coeff 729 harmonic 139.4 2.1900   # SOUECE3 1
    bond_coeff 730 harmonic 142.3 2.1800   # SOUECE3 1
    bond_coeff 731 harmonic 224.0 1.9710   # SOURCE3 10 0.2829
    bond_coeff 732 harmonic 226.6 1.9660   # SOURCE3 10 0.2739
    bond_coeff 733 harmonic 186.5 2.2140   # SOURCE1 41 0.0000
    bond_coeff 734 harmonic 185.7 2.2160   # SOURCE3 3 0.0011
    bond_coeff 735 harmonic 186.9 2.2130   # SOURCE3 9 0.0265
    bond_coeff 736 harmonic 179.7 2.0700   # SOUECE3 1
    bond_coeff 737 harmonic 173.2 2.0870   # SOURCE3 8 0.2235
    bond_coeff 738 harmonic 176.9 2.0770   # SOURCE3 11 0.1420
    bond_coeff 739 harmonic 157.3 2.1320   # SOURCE3 3 0.0078
    bond_coeff 740 harmonic 161.0 2.1210   # SOURCE3 3 0.0059
    bond_coeff 741 harmonic 273.1 2.0340   # SOURCE1 1 0.0000
    bond_coeff 742 harmonic 178.0 2.2370   # SOUECE3 1
    bond_coeff 743 harmonic 152.7 2.1460   # SOURCE3 5 0.0601
    bond_coeff 744 harmonic 123.2 2.2510   # SOUECE3 1
    bond_coeff 745 harmonic 118.9 2.2690   # SOUECE3 1
    bond_coeff 746 harmonic 163.1 2.1150   # SOURCE3 4 0.0008
    bond_coeff 747 harmonic 167.0 2.1040   # SOURCE3 4 0.0044
    bond_coeff 748 harmonic 261.4 2.0540   # SOURCE1 1 0.0000
    bond_coeff 749 harmonic 250.8 1.9220   # SOURCE1 89 0.0140
    bond_coeff 750 harmonic 191.9 2.0400   # SOUECE3 1
    bond_coeff 751 harmonic 191.9 2.0400   # SOUECE3 1
    bond_coeff 752 harmonic 175.0 2.0820   # SOURCE3 3 0.0035
    bond_coeff 753 harmonic 163.1 2.1149   # SOURCE4 24 0.0106
    bond_coeff 754 harmonic 240.7 2.0920   # SOURCE3 7 0.1369
    bond_coeff 755 harmonic 260.8 2.0550   # SOURCE3 1 0.0000
    bond_coeff 756 harmonic 291.4 2.0050   # SOURCE3 12 0.2609
    bond_coeff 757 harmonic 278.6 2.0250   # SOURCE3 12 0.2617
    bond_coeff 758 harmonic 374.7 1.7580   # SOURCE3 31 0.3197
    bond_coeff 759 harmonic 145.9 2.1680   # SOURCE3 9 0.1743
    bond_coeff 760 harmonic 133.0 2.2130   # SOURCE3 6 0.0127
    bond_coeff 761 harmonic 240.7 2.0920   # SOURCE3 7 same_as_pe-pe
    bond_coeff 762 harmonic 291.4 2.0050   # SOURCE3 12 same_as_pe-px
    bond_coeff 763 harmonic 278.6 2.0250   # SOURCE3 12 same_as_pe-py
    bond_coeff 764 harmonic 374.7 1.7580   # SOURCE3 31 same_as_pe-s
    bond_coeff 765 harmonic 145.9 2.1680   # SOURCE3 9 same_as_pe-sx
    bond_coeff 766 harmonic 133.0 2.2130   # SOURCE3 6 same_as_pe-sy
    bond_coeff 767 harmonic 192.3 2.1990   # SOURCE3 5 0.0238
    bond_coeff 768 harmonic 125.4 2.2420   # SOURCE3 3 0.0119
    bond_coeff 769 harmonic 123.7 2.2490   # SOURCE3 3 0.0272
    bond_coeff 770 harmonic 197.5 2.1860   # SOURCE3 8 0.0132
    bond_coeff 771 harmonic 121.2 2.2590   # SOURCE3 7 0.0603
    bond_coeff 772 harmonic 141.7 2.1820   # SOURCE3 5 0.0047
    bond_coeff 773 harmonic 151.5 2.0800   # SOUECE3 1
    bond_coeff 774 harmonic 151.5 2.0800   # SOUECE3 1
    bond_coeff 775 harmonic 125.7 2.1680   # SOURCE3 3 0.0227
    bond_coeff 776 harmonic 126.2 2.1660   # SOURCE3 5 0.0247
    bond_coeff 777 harmonic 151.5 2.0800   # SOUECE3 1
    bond_coeff 778 harmonic 142.6 2.1080   # SOURCE3 3 0.0144
    bond_coeff 779 harmonic 139.6 2.1180   # SOURCE3 5 0.0209
    bond_coeff 780 harmonic 158.9 2.0580   # SOURCE2 1 0.0000
    bond_coeff 781 harmonic 155.8 2.0670   # SOURCE3 3 0.0029
    bond_coeff 782 harmonic 169.0 2.0300   # SOURCE3 1 0.0000
    bond_coeff 783 harmonic 229.2 1.8970   # SOURCE1 5 0.0000
    bond_coeff 784 harmonic 152.8 2.0760   # SOURCE3 4 0.0345
    bond_coeff 785 harmonic 166.0 2.0380   # SOURCE3 3 0.0311
    bond_coeff 786 harmonic 142.0 2.1100   # SOURCE3 2 0.0000
    bond_coeff 787 harmonic 148.5 2.0890   # SOURCE3 1 0.0000
    bond_coeff 788 harmonic 161.7 2.0500   # SOURCE1 225 0.0015
    bond_coeff 789 harmonic 80.9 2.3910   # SOURCE3 3 0.0185
    bond_coeff 790 harmonic 105.3 2.2550   # SOURCE3 5 0.0737
    bond_coeff 791 harmonic 106.4 2.2500   # SOURCE3 3 0.0289
    bond_coeff 792 harmonic 277.6 1.8847   # NEW 39
    bond_coeff 793 harmonic 607.4 1.3153   # NEW 6
    bond_coeff 794 harmonic 368.6 1.3401   # NEW 24
    bond_coeff 795 harmonic 299.0 1.4930   # NEW 7
    bond_coeff 796 harmonic 427.4 1.3790   # NEW 30
    bond_coeff 797 harmonic 367.4 1.4262   # NEW 133
    bond_coeff 798 harmonic 257.9 1.7681   # NEW 8
    bond_coeff 799 harmonic 231.3 1.8113   # NEW 16
    bond_coeff 800 harmonic 330.9 1.5054   # NEW 10
    bond_coeff 801 harmonic 292.6 1.7671   # NEW 24
    bond_coeff 802 harmonic 337.0 1.4993   # NEW 5
    bond_coeff 803 harmonic 323.0 1.5135   # NEW 17
    bond_coeff 804 harmonic 373.8 1.4207   # NEW 5
    bond_coeff 805 harmonic 243.6 1.7906   # NEW 10
    bond_coeff 806 harmonic 420.5 1.3840   # NEW 7
    bond_coeff 807 harmonic 486.7 1.3398   # NEW 70
    angle_coeff 1 harmonic 100.00 104.52   # AMBER 1 TIP3P_water
    angle_coeff 2 harmonic 0.00 127.74   # AMBER 1 (found_in_crystallographic_water_with_3_bonds)
    angle_coeff 3 harmonic 57.76 180.00   # Guess 0
    angle_coeff 4 harmonic 54.93 180.00   # SOURCE3 1 0.0000
    angle_coeff 5 harmonic 64.41 180.00   # SOURCE3 1 0.0000
    angle_coeff 6 harmonic 60.84 180.00   # SOURCE3 2 0.0000
    angle_coeff 7 harmonic 56.28 178.46   # SOURCE4 188 0.6631
    angle_coeff 8 harmonic 56.92 180.00   # SOURCE3 1
    angle_coeff 9 harmonic 51.40 180.00   # SOURCE3 1
    angle_coeff 10 harmonic 61.02 180.00   # SOURCE3 1
    angle_coeff 11 harmonic 44.84 178.38   # SOURCE3 41 2.0683
    angle_coeff 12 harmonic 44.73 180.00   # SOURCE3 1
    angle_coeff 13 harmonic 49.80 180.00   # SOURCE3 1 0.0000
    angle_coeff 14 harmonic 67.17 180.00   # SOURCE3 1
    angle_coeff 15 harmonic 65.17 180.00   # SOURCE3 1
    angle_coeff 16 harmonic 59.77 180.00   # SOURCE3 1
    angle_coeff 17 harmonic 59.09 179.56   # SOURCE3 3 0.3096
    angle_coeff 18 harmonic 62.13 177.18   # SOURCE3 1 0.0000
    angle_coeff 19 harmonic 61.23 176.75   # SOURCE3 8 2.9328
    angle_coeff 20 harmonic 61.44 179.27   # SOURCE3 3 0.2357
    angle_coeff 21 harmonic 59.38 180.00   # SOURCE3 3 0.0000
    angle_coeff 22 harmonic 66.79 180.00   # SOURCE3 1 0.0000
    angle_coeff 23 harmonic 62.70 176.65   # SOURCE3 1 0.0000
    angle_coeff 24 harmonic 62.77 176.42   # SOURCE3 2 0.0000
    angle_coeff 25 harmonic 65.19 180.00   # SOURCE3 1
    angle_coeff 26 harmonic 66.41 169.63   # SOURCE3 2 0.0000
    angle_coeff 27 harmonic 64.47 180.00   # SOURCE3 1
    angle_coeff 28 harmonic 66.52 176.17   # SOURCE3 2 0.0000
    angle_coeff 29 harmonic 54.12 167.47   # SOURCE3 2 0.0000
    angle_coeff 30 harmonic 53.74 174.38   # SOURCE3 2 0.0000
    angle_coeff 31 harmonic 55.65 179.97   # SOURCE3 1 0.0000
    angle_coeff 32 harmonic 54.14 180.00   # SOURCE3 1
    angle_coeff 33 harmonic 55.22 173.22   # SOURCE3 2 0.0000
    angle_coeff 34 harmonic 58.20 180.00   # SOURCE3 1 0.0000
    angle_coeff 35 harmonic 58.18 179.01   # SOURCE4 6 0.4656
angle_coeff 36 harmonic 63.14 180.00   # HF/6-31G* 1
    angle_coeff 37 harmonic 63.07 179.50   # SOURCE2 1 0.0000
    angle_coeff 38 harmonic 56.73 172.98   # SOURCE3 1 0.0000
    angle_coeff 39 harmonic 51.75 180.00   # Guess 0
    angle_coeff 40 harmonic 55.79 178.52   # SOURCE4 39 0.5063
    angle_coeff 41 harmonic 58.10 178.50   # SOURCE4 77 0.5443
    angle_coeff 42 harmonic 52.83 180.00   # Guess 0
    angle_coeff 43 harmonic 56.33 180.00   # SOURCE3 1
    angle_coeff 44 harmonic 43.98 177.41   # SOURCE3 22 2.4947
    angle_coeff 45 harmonic 43.98 177.41   # SOURCE3 22 same_as_cg-c1-ha
    angle_coeff 46 harmonic 46.64 180.00   # Guess 0
    angle_coeff 47 harmonic 58.19 180.00   # Guess 0
    angle_coeff 48 harmonic 53.41 180.00   # Guess 0
    angle_coeff 49 harmonic 93.20 102.01   # SOURCE3 1
    angle_coeff 50 harmonic 63.71 169.70   # SOURCE2 1 0.0000
    angle_coeff 51 harmonic 64.02 177.43   # SOURCE4 7 0.7877
    angle_coeff 52 harmonic 64.72 178.59   # SOURCE3 1 0.0000
    angle_coeff 53 harmonic 67.69 171.20   # SOURCE2 1 0.0000
    angle_coeff 54 harmonic 55.82 178.68   # SOURCE3 1 0.0000
    angle_coeff 55 harmonic 65.99 180.00   # Guess 0
    angle_coeff 56 harmonic 69.15 171.79   # SOURCE3 2 0.3594
    angle_coeff 57 harmonic 57.48 176.01   # SOURCE4 9 0.1123
    angle_coeff 58 harmonic 57.36 180.00   # Guess 0
    angle_coeff 59 harmonic 56.35 180.00   # Guess 0
    angle_coeff 60 harmonic 58.62 180.00   # Guess 0
    angle_coeff 61 harmonic 69.39 172.33   # SOURCE3 1 0.0000
    angle_coeff 62 harmonic 57.59 175.81   # SOURCE4 8 0.2356
    angle_coeff 63 harmonic 69.39 172.33   # SOURCE3 1 same_as_ne-c1-o
    angle_coeff 64 harmonic 59.55 180.00   # Guess 0
    angle_coeff 65 harmonic 60.03 180.00   # Guess 0
    angle_coeff 66 harmonic 56.83 180.00   # Guess 0
    angle_coeff 67 harmonic 60.91 180.00   # Guess 0
    angle_coeff 68 harmonic 69.27 180.00   # Guess 0
    angle_coeff 69 harmonic 60.96 180.00   # Guess 0
    angle_coeff 70 harmonic 80.59 180.00   # Guess 0
    angle_coeff 71 harmonic 79.69 180.00   # Guess 0
    angle_coeff 72 harmonic 79.69 180.00   # Guess 0
    angle_coeff 73 harmonic 81.37 180.00   # Guess 0
    angle_coeff 74 harmonic 55.83 180.00   # Guess 0
    angle_coeff 75 harmonic 51.00 180.00   # Guess 0
    angle_coeff 76 harmonic 51.72 180.00   # Guess 0
    angle_coeff 77 harmonic 53.01 180.00   # Guess 0
    angle_coeff 78 harmonic 54.63 180.00   # Guess 0
    angle_coeff 79 harmonic 53.04 180.00   # Guess 0
    angle_coeff 80 harmonic 68.56 115.06   # SOURCE3 1 0.0000
    angle_coeff 81 harmonic 63.97 118.96   # SOURCE4 6 0.4902
    angle_coeff 82 harmonic 63.71 115.33   # SOURCE4 6 0.5872
    angle_coeff 83 harmonic 63.21 121.59   # SOURCE4 7 0.7078
    angle_coeff 84 harmonic 43.04 113.94   # SOURCE4 6 0.4017
    angle_coeff 85 harmonic 43.18 113.28   # SOURCE3 1 0.0000
    angle_coeff 86 harmonic 72.26 116.77   # SOURCE3 1
    angle_coeff 87 harmonic 70.34 121.62   # SOURCE3 1
    angle_coeff 88 harmonic 64.22 124.92   # SOURCE4 17 0.7576
    angle_coeff 89 harmonic 67.99 124.90   # SOURCE2 1 0.0000
    angle_coeff 90 harmonic 50.43 121.37   # SOURCE3 8 0.0055
    angle_coeff 91 harmonic 69.84 121.81   # SOURCE3 10 0.3843
    angle_coeff 92 harmonic 64.33 123.42   # SOURCE3 41 2.6057
    angle_coeff 93 harmonic 66.88 117.00   # SOURCE3 1
    angle_coeff 94 harmonic 70.22 117.21   # SOURCE3 2 0.3418
    angle_coeff 95 harmonic 70.22 117.21   # SOURCE3 2 same_as_c2-c2-cc
    angle_coeff 96 harmonic 58.43 122.85   # SOURCE4 23 0.6711
    angle_coeff 97 harmonic 64.50 125.40   # SOURCE4 12 1.8494
    angle_coeff 98 harmonic 70.42 103.30   # SOURCE2 1 0.0000
    angle_coeff 99 harmonic 68.11 122.92   # SOURCE4 12 0.5301
    angle_coeff 100 harmonic 49.75 122.54   # SOURCE4 69 1.1900
    angle_coeff 101 harmonic 50.04 120.94   # SOURCE3 254 1.3150
    angle_coeff 102 harmonic 50.30 119.70   # SOURCE3 1
    angle_coeff 103 harmonic 48.98 126.45   # SOURCE3 3 0.0219
    angle_coeff 104 harmonic 56.28 121.03   # SOURCE3 2 0.0000
angle_coeff 105 harmonic 71.69 122.98   # HF/6-31G* 1
    angle_coeff 106 harmonic 71.29 126.01   # SOURCE3 1 0.0000
    angle_coeff 107 harmonic 70.33 124.55   # SOURCE3 1
    angle_coeff 108 harmonic 67.18 121.52   # SOURCE3 5 1.2656
    angle_coeff 109 harmonic 68.86 123.20   # SOURCE4 15 1.8657
    angle_coeff 110 harmonic 69.83 121.38   # SOURCE3 26 6.9463
    angle_coeff 111 harmonic 69.80 124.99   # SOURCE3 7 0.9929
    angle_coeff 112 harmonic 67.52 124.09   # SOURCE4 6 1.2772
    angle_coeff 113 harmonic 71.92 130.89   # SOURCE3 2 0.0201
    angle_coeff 114 harmonic 71.64 122.07   # SOURCE4 6 1.0883
    angle_coeff 115 harmonic 71.04 121.89   # SOURCE4 33 1.3457
    angle_coeff 116 harmonic 84.73 115.10   # SOURCE3 1
    angle_coeff 117 harmonic 75.19 124.83   # SOURCE3 5 2.1222
    angle_coeff 118 harmonic 77.22 119.76   # SOURCE3 1
    angle_coeff 119 harmonic 73.70 125.97   # SOURCE3 1
    angle_coeff 120 harmonic 62.85 119.84   # SOURCE3 1
    angle_coeff 121 harmonic 62.81 120.01   # SOURCE3 1
    angle_coeff 122 harmonic 61.25 129.37   # SOURCE3 2 0.0000
    angle_coeff 123 harmonic 60.87 125.70   # SOURCE3 3 1.3390
    angle_coeff 124 harmonic 62.79 122.86   # SOURCE4 13 1.7467
    angle_coeff 125 harmonic 62.70 116.52   # SOURCE3 15 3.1001
    angle_coeff 126 harmonic 63.22 125.39   # CORR 27
    angle_coeff 127 harmonic 63.22 125.39   # CORR 27
    angle_coeff 128 harmonic 64.17 123.08   # CORR 1288
    angle_coeff 129 harmonic 64.17 123.08   # CORR 1288
    angle_coeff 130 harmonic 45.30 119.25   # SOURCE4 22 2.1707
    angle_coeff 131 harmonic 45.66 117.30   # SOURCE3 33 1.7453
    angle_coeff 132 harmonic 45.15 120.00   # SOURCE3 1
    angle_coeff 133 harmonic 66.47 123.52   # SOURCE4 141 2.2935
    angle_coeff 134 harmonic 66.79 114.80   # SOURCE4 12 1.8112
    angle_coeff 135 harmonic 64.95 122.54   # SOURCE3 1 0.0000
    angle_coeff 136 harmonic 66.96 122.15   # SOURCE3 4 0.2197
    angle_coeff 137 harmonic 66.96 122.15   # SOURCE3 4 same_as_c3-c2-ne
    angle_coeff 138 harmonic 66.69 118.59   # SOURCE3 6 2.2622
    angle_coeff 139 harmonic 67.88 123.18   # SOURCE4 5 0.9226
    angle_coeff 140 harmonic 68.50 115.04   # SOURCE4 36 2.0110
    angle_coeff 141 harmonic 68.77 112.69   # SOURCE4 50 2.4254
    angle_coeff 142 harmonic 78.98 122.74   # SOURCE3 2 0.0000
    angle_coeff 143 harmonic 62.79 115.44   # SOURCE3 2 0.0115
    angle_coeff 144 harmonic 61.62 119.66   # SOURCE4 45 1.9732
    angle_coeff 145 harmonic 63.51 117.88   # SOURCE3 1
    angle_coeff 146 harmonic 45.28 123.30   # SOURCE3 1
    angle_coeff 147 harmonic 67.93 120.70   # SOURCE3 1
    angle_coeff 148 harmonic 63.87 119.70   # SOURCE3 1
    angle_coeff 149 harmonic 66.57 118.88   # SOURCE3 1
    angle_coeff 150 harmonic 49.19 120.33   # SOURCE4 7 0.0865
    angle_coeff 151 harmonic 49.07 120.76   # SOURCE3 11 1.4155
    angle_coeff 152 harmonic 69.46 122.96   # SOURCE4 10 0.7347
    angle_coeff 153 harmonic 72.80 123.59   # SOURCE4 6 0.0560
    angle_coeff 154 harmonic 49.07 120.76   # SOURCE3 11 1.4155
    angle_coeff 155 harmonic 58.06 123.90   # SOURCE4 11 0.3570
    angle_coeff 156 harmonic 49.38 122.29   # SOURCE4 75 1.4008
    angle_coeff 157 harmonic 49.57 121.19   # SOURCE3 122 0.5318
    angle_coeff 158 harmonic 68.82 123.71   # SOURCE4 6 2.0109
    angle_coeff 159 harmonic 70.64 120.72   # SOURCE4 93 2.2537
    angle_coeff 160 harmonic 68.45 119.65   # SOURCE4 5 0.9817
    angle_coeff 161 harmonic 73.66 123.08   # SOURCE4 5 0.2391
    angle_coeff 162 harmonic 70.90 123.27   # SOURCE4 42 1.8111
    angle_coeff 163 harmonic 70.47 122.52   # SOURCE4 51 2.4680
    angle_coeff 164 harmonic 49.57 121.19   # SOURCE3 122 same_as_ce-c2-ha
    angle_coeff 165 harmonic 47.67 121.33   # SOURCE3 4 0.2462
    angle_coeff 166 harmonic 48.00 119.70   # SOURCE3 1
    angle_coeff 167 harmonic 55.44 114.27   # SOURCE4 10 0.5850
    angle_coeff 168 harmonic 40.76 113.77   # SOURCE4 9 0.6228
    angle_coeff 169 harmonic 40.86 113.20   # SOURCE3 1 0.0000
    angle_coeff 170 harmonic 46.61 115.89   # SOURCE4 15 0.3682
    angle_coeff 171 harmonic 70.67 109.60   # SOURCE2 2 0.6000
    angle_coeff 172 harmonic 51.25 110.00   # SOURCE2 1 0.0000
    angle_coeff 173 harmonic 52.40 120.69   # SOURCE4 13 1.3105
    angle_coeff 174 harmonic 50.48 113.57   # SOURCE4 26 1.0283
    angle_coeff 175 harmonic 51.03 113.22   # SOURCE4 9 0.6345
    angle_coeff 176 harmonic 52.87 119.63   # SOURCE4 10 1.6786
    angle_coeff 177 harmonic 51.55 115.64   # SOURCE4 31 1.0081
    angle_coeff 178 harmonic 49.39 113.38   # SOURCE4 6 0.1240
    angle_coeff 179 harmonic 52.23 113.70   # SOURCE3 13 2.0464
    angle_coeff 180 harmonic 42.85 118.47   # SOURCE3 9 2.5335
    angle_coeff 181 harmonic 52.41 120.16   # SOURCE4 27 1.8999
    angle_coeff 182 harmonic 48.23 126.39   # SOURCE3 4 0.3299
    angle_coeff 183 harmonic 52.76 119.62   # SOURCE4 17 1.3235
    angle_coeff 184 harmonic 51.85 113.93   # SOURCE4 50 0.8394
    angle_coeff 185 harmonic 38.02 117.65   # SOURCE3 349 1.3426
    angle_coeff 186 harmonic 51.83 120.76   # SOURCE3 8 0.6632
    angle_coeff 187 harmonic 52.39 120.54   # SOURCE3 92 1.4571
    angle_coeff 188 harmonic 52.44 113.54   # SOURCE3 1
    angle_coeff 189 harmonic 50.49 113.40   # SOURCE3 4 1.2182
    angle_coeff 190 harmonic 51.18 112.42   # SOURCE3 8 0.6507
    angle_coeff 191 harmonic 52.48 121.18   # SOURCE3 68 0.6824
    angle_coeff 192 harmonic 52.48 121.18   # SOURCE3 68 same_as_ha-c2-ne
    angle_coeff 193 harmonic 51.29 116.68   # SOURCE3 13 2.5734
    angle_coeff 194 harmonic 49.64 112.14   # SOURCE3 2 0.0264
    angle_coeff 195 harmonic 55.30 117.23   # SOURCE3 2 0.0201
    angle_coeff 196 harmonic 52.34 116.18   # SOURCE3 2 0.0000
    angle_coeff 197 harmonic 52.43 112.69   # SOURCE3 13 2.5851
    angle_coeff 198 harmonic 55.74 121.48   # SOURCE3 122 0.4329
    angle_coeff 199 harmonic 52.04 114.31   # SOURCE3 3 0.0000
    angle_coeff 200 harmonic 51.62 117.86   # SOURCE3 1
    angle_coeff 201 harmonic 49.81 120.10   # SOURCE3 2 0.0000
    angle_coeff 202 harmonic 55.05 121.46   # SOURCE3 104 0.7821
    angle_coeff 203 harmonic 55.05 121.46   # SOURCE3 104 same_as_ha-c2-pe
    angle_coeff 204 harmonic 46.19 118.74   # SOURCE3 2 0.0000
    angle_coeff 205 harmonic 42.81 115.30   # SOURCE3 2 0.0000
    angle_coeff 206 harmonic 43.42 115.70   # SOURCE3 2 0.0000
    angle_coeff 207 harmonic 42.58 116.60   # SOURCE3 2 0.0000
    angle_coeff 208 harmonic 43.04 111.74   # SOURCE3 1 0.0000
    angle_coeff 209 harmonic 43.18 116.72   # SOURCE3 7 2.7543
    angle_coeff 210 harmonic 37.81 118.92   # SOURCE3 1
    angle_coeff 211 harmonic 52.42 120.40   # SOURCE3 1
    angle_coeff 212 harmonic 50.35 114.04   # SOURCE3 1
    angle_coeff 213 harmonic 49.73 119.10   # SOURCE3 1
    angle_coeff 214 harmonic 52.03 113.36   # SOURCE3 1
    angle_coeff 215 harmonic 49.64 112.12   # SOURCE3 1
    angle_coeff 216 harmonic 52.33 116.22   # SOURCE3 1
    angle_coeff 217 harmonic 51.65 116.11   # SOURCE3 1
    angle_coeff 218 harmonic 51.40 117.19   # SOURCE3 1
    angle_coeff 219 harmonic 49.92 119.58   # SOURCE3 1
    angle_coeff 220 harmonic 42.66 116.12   # SOURCE3 1
    angle_coeff 221 harmonic 42.79 115.45   # SOURCE3 1
    angle_coeff 222 harmonic 42.31 115.63   # SOURCE3 1
    angle_coeff 223 harmonic 43.38 115.62   # SOURCE3 1
    angle_coeff 224 harmonic 48.42 113.03   # SOURCE3 3 0.3873
    angle_coeff 225 harmonic 60.96 117.94   # SOURCE3 1 0.0000
angle_coeff 226 harmonic 73.61 124.15   # HF/6-31G* 1
    angle_coeff 227 harmonic 77.96 113.82   # SOURCE3 1 0.0000
    angle_coeff 228 harmonic 72.03 113.05   # SOURCE4 6 0.3318
    angle_coeff 229 harmonic 71.71 123.62   # SOURCE3 1 0.0000
    angle_coeff 230 harmonic 72.62 124.27   # SOURCE3 12 2.4114
    angle_coeff 231 harmonic 74.36 122.08   # SOURCE3 1 0.0000
    angle_coeff 232 harmonic 74.32 119.82   # SOURCE4 20 1.2664
    angle_coeff 233 harmonic 62.86 129.77   # SOURCE3 1 0.0000
    angle_coeff 234 harmonic 73.45 118.47   # SOURCE3 1
    angle_coeff 235 harmonic 67.72 113.93   # SOURCE3 1 0.0000
    angle_coeff 236 harmonic 64.40 116.26   # SOURCE4 7 2.4226
    angle_coeff 237 harmonic 73.65 109.33   # SOURCE3 3 3.0187
    angle_coeff 238 harmonic 73.03 123.56   # CORR 128
    angle_coeff 239 harmonic 74.86 118.76   # SOURCE4 5 0.3382
    angle_coeff 240 harmonic 65.41 120.06   # SOURCE4 9 1.3423
    angle_coeff 241 harmonic 73.03 123.56   # CORR 128
    angle_coeff 242 harmonic 74.46 112.72   # SOURCE4 257 1.8176
    angle_coeff 243 harmonic 74.05 117.16   # SOURCE4 7 0.8698
    angle_coeff 244 harmonic 74.32 114.29   # SOURCE4 18 1.0900
    angle_coeff 245 harmonic 67.23 111.55   # SOURCE4 37 1.1778
    angle_coeff 246 harmonic 70.56 125.95   # SOURCE3 2 5.0202
    angle_coeff 247 harmonic 71.55 113.23   # SOURCE3 1 0.0000
    angle_coeff 248 harmonic 74.57 105.42   # SOURCE3 1 0.0000
    angle_coeff 249 harmonic 70.89 125.38   # SOURCE4 10 1.6819
    angle_coeff 250 harmonic 74.20 109.14   # SOURCE4 22 1.5634
    angle_coeff 251 harmonic 69.43 113.90   # SOURCE3 1 0.0000
    angle_coeff 252 harmonic 66.83 111.06   # SOURCE4 9 0.5522
    angle_coeff 253 harmonic 76.03 114.33   # SOURCE3 1 0.0000
    angle_coeff 254 harmonic 80.23 121.69   # SOURCE3 1
    angle_coeff 255 harmonic 76.69 121.23   # SOURCE4 6 0.0958
    angle_coeff 256 harmonic 64.15 127.68   # SOURCE3 2 0.0547
    angle_coeff 257 harmonic 74.21 115.80   # SOURCE3 1 0.0000
    angle_coeff 258 harmonic 100.59 129.80   # SOURCE3 1
    angle_coeff 259 harmonic 97.08 115.54   # SOURCE3 1 0.0000
    angle_coeff 260 harmonic 92.92 121.85   # SOURCE3 1
    angle_coeff 261 harmonic 61.89 120.32   # SOURCE3 1
    angle_coeff 262 harmonic 61.98 119.95   # SOURCE3 1
    angle_coeff 263 harmonic 61.98 119.97   # SOURCE3 1
    angle_coeff 264 harmonic 63.96 110.48   # SOURCE3 1 0.0000
    angle_coeff 265 harmonic 62.65 117.82   # SOURCE3 1
    angle_coeff 266 harmonic 62.47 121.67   # SOURCE3 1
    angle_coeff 267 harmonic 62.77 120.24   # SOURCE3 1 0.0000
    angle_coeff 268 harmonic 67.46 109.03   # SOURCE4 6 0.5435
    angle_coeff 269 harmonic 62.77 111.80   # SOURCE2 3 0.2160
    angle_coeff 270 harmonic 63.03 109.25   # SOURCE3 10 0.5685
    angle_coeff 271 harmonic 62.92 110.37   # SOURCE4 13 2.4747
    angle_coeff 272 harmonic 43.12 103.04   # SOURCE3 5 0.3092
    angle_coeff 273 harmonic 42.34 107.10   # SOURCE4 7 0.2378
    angle_coeff 274 harmonic 42.40 106.50   # SOURCE3 1
    angle_coeff 275 harmonic 66.50 109.00   # SOURCE2 1 0.0000
    angle_coeff 276 harmonic 65.00 111.11   # SOURCE4 12 0.7366
    angle_coeff 277 harmonic 64.29 111.42   # SOURCE4 197 1.2106
    angle_coeff 278 harmonic 64.93 110.95   # SOURCE4 28 1.1203
    angle_coeff 279 harmonic 64.32 114.20   # CORR 13
    angle_coeff 280 harmonic 64.32 114.20   # CORR 13
    angle_coeff 281 harmonic 58.49 110.63   # SOURCE2 3 1.2257
    angle_coeff 282 harmonic 48.35 109.29   # SOURCE4 133 0.5701
    angle_coeff 283 harmonic 48.25 109.75   # SOURCE3 12 0.8436
    angle_coeff 284 harmonic 47.76 112.05   # SOURCE4 17 0.2587
    angle_coeff 285 harmonic 67.03 112.59   # SOURCE4 28 0.9555
    angle_coeff 286 harmonic 66.53 112.04   # SOURCE4 11 0.5701
    angle_coeff 287 harmonic 67.41 112.08   # SOURCE4 18 0.9568
    angle_coeff 288 harmonic 67.25 112.79   # SOURCE4 8 0.9453
    angle_coeff 289 harmonic 69.49 109.14   # SOURCE4 39 0.6500
    angle_coeff 290 harmonic 69.27 108.88   # SOURCE4 31 0.9597
    angle_coeff 291 harmonic 63.93 112.08   # SOURCE4 153 0.7742
    angle_coeff 292 harmonic 63.53 111.44   # SOURCE4 2891 1.7167
    angle_coeff 293 harmonic 63.71 112.45   # SOURCE4 141 1.6755
    angle_coeff 294 harmonic 64.24 111.64   # CORR 32
    angle_coeff 295 harmonic 64.24 111.64   # CORR 32
    angle_coeff 296 harmonic 64.05 111.87   # CORR 38
    angle_coeff 297 harmonic 64.05 111.87   # CORR 38
    angle_coeff 298 harmonic 57.71 112.07   # SOURCE4 6 0.9936
    angle_coeff 299 harmonic 63.65 112.62   # SOURCE4 17 1.3287
    angle_coeff 300 harmonic 66.76 101.33   # SOURCE4 58 0.9262
    angle_coeff 301 harmonic 66.52 110.96   # SOURCE4 25 0.2829
    angle_coeff 302 harmonic 47.03 110.46   # SOURCE3 17 1.1525
    angle_coeff 303 harmonic 46.84 111.19   # SOURCE4 17 0.8311
    angle_coeff 304 harmonic 47.03 110.49   # SOURCE3 159 0.7479
    angle_coeff 305 harmonic 46.83 111.45   # SOURCE4 20 0.9004
    angle_coeff 306 harmonic 67.09 108.99   # SOURCE4 10 1.2025
    angle_coeff 307 harmonic 66.47 111.52   # SOURCE4 158 1.4012
    angle_coeff 308 harmonic 66.73 111.38   # SOURCE4 67 1.7559
    angle_coeff 309 harmonic 66.24 113.30   # SOURCE4 27 1.2945
    angle_coeff 310 harmonic 67.10 110.27   # SOURCE4 56 1.8018
    angle_coeff 311 harmonic 68.18 110.21   # SOURCE4 220 1.4197
    angle_coeff 312 harmonic 68.45 108.48   # SOURCE4 204 1.6082
    angle_coeff 313 harmonic 62.57 109.73   # SOURCE4 6 0.1722
    angle_coeff 314 harmonic 63.62 104.97   # SOURCE3 2 2.2248
    angle_coeff 315 harmonic 63.21 110.63   # SOURCE3 507 2.7845
    angle_coeff 316 harmonic 63.25 112.09   # SOURCE4 3859 1.5523
    angle_coeff 317 harmonic 63.58 111.89   # CORR 700
    angle_coeff 318 harmonic 63.58 111.89   # CORR 700
    angle_coeff 319 harmonic 63.70 111.06   # CORR 490
    angle_coeff 320 harmonic 63.70 111.06   # CORR 490
    angle_coeff 321 harmonic 57.85 110.33   # SOURCE3 20 1.1495
    angle_coeff 322 harmonic 63.30 111.82   # SOURCE4 179 2.4814
    angle_coeff 323 harmonic 63.63 109.62   # SOURCE3 5 2.0747
    angle_coeff 324 harmonic 66.22 109.41   # SOURCE3 18 1.1878
    angle_coeff 325 harmonic 46.36 110.07   # SOURCE3 457 1.1542
    angle_coeff 326 harmonic 46.02 111.59   # SOURCE3 8 1.1217
    angle_coeff 327 harmonic 46.37 110.05   # SOURCE3 2092 0.6991
    angle_coeff 328 harmonic 46.02 111.74   # SOURCE3 15 1.2365
    angle_coeff 329 harmonic 58.48 110.96   # SOURCE3 2 0.0000
    angle_coeff 330 harmonic 66.64 108.86   # SOURCE4 9 0.8093
    angle_coeff 331 harmonic 66.40 109.16   # SOURCE3 8 1.4079
    angle_coeff 332 harmonic 66.18 110.38   # SOURCE3 69 2.9054
    angle_coeff 333 harmonic 64.45 114.32   # SOURCE4 567 2.4412
    angle_coeff 334 harmonic 65.85 112.13   # SOURCE3 31 2.0700
    angle_coeff 335 harmonic 65.73 112.81   # SOURCE4 595 1.5050
    angle_coeff 336 harmonic 66.39 110.45   # SOURCE4 1514 1.3881
    angle_coeff 337 harmonic 65.21 109.27   # SOURCE4 25 1.1817
    angle_coeff 338 harmonic 68.59 112.97   # SOURCE4 14 1.0277
    angle_coeff 339 harmonic 67.72 109.43   # SOURCE3 48 1.5023
    angle_coeff 340 harmonic 67.78 108.42   # SOURCE3 122 1.6759
    angle_coeff 341 harmonic 76.46 113.19   # SOURCE4 15 0.2974
    angle_coeff 342 harmonic 77.70 112.32   # SOURCE4 106 1.1753
    angle_coeff 343 harmonic 62.16 110.07   # SOURCE4 38 0.8510
    angle_coeff 344 harmonic 62.98 110.00   # SOURCE4 152 1.4278
    angle_coeff 345 harmonic 60.98 113.02   # SOURCE4 80 1.3442
    angle_coeff 346 harmonic 61.10 112.69   # SOURCE3 24 2.1842
    angle_coeff 347 harmonic 62.81 109.91   # SOURCE4 22 0.9248
    angle_coeff 348 harmonic 63.66 112.26   # SOURCE4 385 1.7047
    angle_coeff 349 harmonic 63.92 112.38   # CORR 69
    angle_coeff 350 harmonic 63.92 112.38   # CORR 69
    angle_coeff 351 harmonic 63.81 112.33   # SOURCE4 51 1.1929
    angle_coeff 352 harmonic 57.85 111.31   # SOURCE4 16 0.8077
    angle_coeff 353 harmonic 63.69 112.10   # SOURCE4 5 2.1117
    angle_coeff 354 harmonic 66.14 111.76   # SOURCE4 449 0.3492
    angle_coeff 355 harmonic 46.78 110.95   # SOURCE3 12 1.1170
    angle_coeff 356 harmonic 47.03 109.66   # SOURCE4 29 1.2184
    angle_coeff 357 harmonic 46.96 110.15   # SOURCE3 47 1.2602
    angle_coeff 358 harmonic 46.69 111.44   # SOURCE4 33 0.4691
    angle_coeff 359 harmonic 65.92 112.49   # SOURCE4 22 1.1043
    angle_coeff 360 harmonic 66.18 112.13   # SOURCE4 387 1.2309
    angle_coeff 361 harmonic 64.87 114.54   # SOURCE4 22 2.3986
    angle_coeff 362 harmonic 66.29 112.43   # SOURCE4 201 1.5133
    angle_coeff 363 harmonic 66.27 112.81   # SOURCE4 104 1.5807
    angle_coeff 364 harmonic 68.20 106.51   # SOURCE3 1 0.0000
    angle_coeff 365 harmonic 68.20 106.51   # SOURCE3 1 same_as_ca-c3-nc
    angle_coeff 366 harmonic 66.64 111.41   # SOURCE4 147 1.0074
    angle_coeff 367 harmonic 67.94 110.55   # SOURCE4 348 1.2310
    angle_coeff 368 harmonic 68.19 108.89   # SOURCE4 411 1.0102
    angle_coeff 369 harmonic 77.64 113.41   # SOURCE4 19 1.4444
    angle_coeff 370 harmonic 62.87 111.36   # SOURCE4 15 1.4775
    angle_coeff 371 harmonic 61.90 110.66   # SOURCE4 78 1.4797
    angle_coeff 372 harmonic 62.16 110.80   # SOURCE4 16 0.5396
    angle_coeff 373 harmonic 64.56 112.64   # SOURCE4 11 1.0678
    angle_coeff 374 harmonic 64.14 111.32   # SOURCE4 92 1.8522
    angle_coeff 375 harmonic 63.79 110.53   # SOURCE3 62 1.9636
    angle_coeff 376 harmonic 64.06 111.61   # SOURCE4 151 2.1872
    angle_coeff 377 harmonic 64.13 110.99   # SOURCE4 481 1.7257
    angle_coeff 378 harmonic 63.89 112.89   # CORR 104
    angle_coeff 379 harmonic 64.61 111.05   # CORR 19
    angle_coeff 380 harmonic 67.30 102.35   # SOURCE3 1 0.0000
    angle_coeff 381 harmonic 63.85 112.55   # SOURCE4 5 1.4317
    angle_coeff 382 harmonic 63.89 112.89   # CORR 104
    angle_coeff 383 harmonic 64.02 111.98   # SOURCE4 16 2.1388
    angle_coeff 384 harmonic 66.70 111.22   # CORR 69
    angle_coeff 385 harmonic 47.03 111.62   # SOURCE3 20 1.0215
    angle_coeff 386 harmonic 47.20 110.86   # SOURCE3 85 1.0276
    angle_coeff 387 harmonic 47.17 111.02   # SOURCE4 9 0.7503
    angle_coeff 388 harmonic 57.94 111.16   # SOURCE4 41 1.2257
    angle_coeff 389 harmonic 66.85 110.47   # SOURCE4 11 0.5153
    angle_coeff 390 harmonic 66.79 111.17   # CORR 111
    angle_coeff 391 harmonic 64.88 115.58   # SOURCE4 6 1.1723
    angle_coeff 392 harmonic 66.84 111.71   # CORR 32
    angle_coeff 393 harmonic 66.43 113.39   # SOURCE4 8 0.8010
    angle_coeff 394 harmonic 68.37 107.04   # SOURCE3 2 0.0000
    angle_coeff 395 harmonic 66.68 112.38   # CORR 21
    angle_coeff 396 harmonic 68.13 111.10   # CORR 116
    angle_coeff 397 harmonic 68.51 109.01   # CORR 91
    angle_coeff 398 harmonic 76.89 116.23   # SOURCE4 6 0.7766
    angle_coeff 399 harmonic 61.11 114.02   # SOURCE3 1 same_as_cd-c3-sh
    angle_coeff 400 harmonic 61.95 111.06   # CORR 43
    angle_coeff 401 harmonic 64.08 111.09   # SOURCE4 9 1.2357
    angle_coeff 402 harmonic 64.61 111.05   # CORR 19
    angle_coeff 403 harmonic 66.70 111.22   # CORR 69
    angle_coeff 404 harmonic 47.03 111.62   # SOURCE3 20 1.0215
    angle_coeff 405 harmonic 47.20 110.86   # SOURCE3 85 1.0276
    angle_coeff 406 harmonic 66.79 111.17   # CORR 111
    angle_coeff 407 harmonic 66.84 111.71   # CORR 32
    angle_coeff 408 harmonic 68.37 107.04   # SOURCE3 2 same_as_cc-c3-nc
    angle_coeff 409 harmonic 66.68 112.38   # CORR 21
    angle_coeff 410 harmonic 68.13 111.10   # CORR 116
    angle_coeff 411 harmonic 68.51 109.01   # CORR 91
    angle_coeff 412 harmonic 61.11 114.02   # SOURCE3 1 0.0000
    angle_coeff 413 harmonic 61.95 111.06   # CORR 43
    angle_coeff 414 harmonic 64.24 111.44   # SOURCE4 18 0.3695
    angle_coeff 415 harmonic 66.33 102.85   # CORR 55
    angle_coeff 416 harmonic 47.30 109.59   # CORR 119
    angle_coeff 417 harmonic 47.00 110.98   # SOURCE3 27 0.1559
    angle_coeff 418 harmonic 66.45 111.83   # CORR 28
    angle_coeff 419 harmonic 67.09 110.41   # SOURCE4 6 1.1405
    angle_coeff 420 harmonic 68.00 111.05   # SOURCE4 17 1.5159
    angle_coeff 421 harmonic 68.64 108.10   # SOURCE4 16 1.9583
    angle_coeff 422 harmonic 61.87 111.10   # SOURCE4 7 2.0156
    angle_coeff 423 harmonic 66.82 109.98   # SOURCE4 38 0.9895
    angle_coeff 424 harmonic 66.33 102.85   # CORR 55
    angle_coeff 425 harmonic 47.30 109.59   # CORR 119
    angle_coeff 426 harmonic 47.00 110.98   # SOURCE3 27 same_as_ce-c3-hc
    angle_coeff 427 harmonic 66.45 111.83   # CORR 28
    angle_coeff 428 harmonic 47.63 107.66   # SOURCE3 66 1.4015
    angle_coeff 429 harmonic 47.16 109.69   # SOURCE4 38 1.0614
    angle_coeff 430 harmonic 47.20 109.68   # SOURCE3 614 0.6426
    angle_coeff 431 harmonic 47.23 109.54   # SOURCE4 47 0.6627
    angle_coeff 432 harmonic 54.23 111.03   # SOURCE2 6 1.1324
    angle_coeff 433 harmonic 59.15 109.02   # SOURCE4 15 0.3609
    angle_coeff 434 harmonic 40.66 105.93   # SOURCE3 19 1.1883
    angle_coeff 435 harmonic 40.44 107.14   # SOURCE4 50 0.5973
    angle_coeff 436 harmonic 40.33 107.65   # SOURCE2 2 2.2500
    angle_coeff 437 harmonic 60.38 111.40   # SOURCE4 8 0.8275
    angle_coeff 438 harmonic 57.60 112.94   # SOURCE4 10 1.4625
    angle_coeff 439 harmonic 66.92 109.55   # SOURCE4 55 1.4579
    angle_coeff 440 harmonic 66.59 111.14   # SOURCE4 629 1.6673
    angle_coeff 441 harmonic 65.07 114.21   # SOURCE4 27 1.5388
    angle_coeff 442 harmonic 66.67 111.56   # SOURCE3 28 1.7981
    angle_coeff 443 harmonic 66.81 111.37   # SOURCE4 31 1.6229
    angle_coeff 444 harmonic 67.36 109.43   # SOURCE4 42 1.7022
    angle_coeff 445 harmonic 68.65 108.70   # SOURCE4 299 1.3415
    angle_coeff 446 harmonic 68.03 109.82   # SOURCE3 10 2.0612
    angle_coeff 447 harmonic 78.76 110.41   # SOURCE4 15 2.2683
    angle_coeff 448 harmonic 63.26 110.22   # SOURCE4 5 2.0076
    angle_coeff 449 harmonic 62.46 108.82   # SOURCE4 12 0.8354
    angle_coeff 450 harmonic 61.70 111.58   # SOURCE3 5 1.9506
    angle_coeff 451 harmonic 63.53 112.58   # SOURCE4 7 1.2211
    angle_coeff 452 harmonic 47.04 109.64   # SOURCE4 175 0.8822
    angle_coeff 453 harmonic 46.92 110.20   # SOURCE4 356 0.8798
    angle_coeff 454 harmonic 46.38 112.81   # SOURCE4 12 0.0977
    angle_coeff 455 harmonic 65.83 113.22   # SOURCE4 33 1.3978
    angle_coeff 456 harmonic 68.88 101.51   # SOURCE4 12 0.0760
    angle_coeff 457 harmonic 66.22 112.59   # SOURCE4 22 0.8034
    angle_coeff 458 harmonic 68.10 109.97   # SOURCE4 25 1.3176
    angle_coeff 459 harmonic 68.40 108.16   # SOURCE4 26 1.0162
    angle_coeff 460 harmonic 47.00 107.88   # SOURCE4 162 0.9624
    angle_coeff 461 harmonic 46.51 110.17   # SOURCE3 16 0.5693
    angle_coeff 462 harmonic 65.63 112.72   # SOURCE4 7 1.0639
    angle_coeff 463 harmonic 67.22 111.56   # SOURCE4 138 0.5051
    angle_coeff 464 harmonic 68.45 106.79   # SOURCE4 5 1.0955
    angle_coeff 465 harmonic 71.26 107.16   # SOURCE2 10 1.1324
    angle_coeff 466 harmonic 51.57 107.85   # SOURCE3 14 0.9537
    angle_coeff 467 harmonic 51.36 108.41   # SOURCE3 6 0.5081
    angle_coeff 468 harmonic 51.05 110.01   # SOURCE4 19 0.6811
    angle_coeff 469 harmonic 51.33 108.92   # SOURCE2 5 3.0534
    angle_coeff 470 harmonic 69.23 110.40   # SOURCE2 3 2.6470
    angle_coeff 471 harmonic 70.66 110.61   # SOURCE4 45 1.1755
    angle_coeff 472 harmonic 80.63 107.25   # SOURCE4 11 1.1735
    angle_coeff 473 harmonic 64.18 109.67   # SOURCE4 24 0.4116
    angle_coeff 474 harmonic 62.13 111.89   # SOURCE4 11 0.9479
    angle_coeff 475 harmonic 39.18 109.55   # SOURCE3 1888 1.1205
angle_coeff 476 harmonic 49.99 107.31   # HF/6-31G* 1
    angle_coeff 477 harmonic 49.26 109.61   # SOURCE3 63 1.0452
    angle_coeff 478 harmonic 49.39 109.92   # SOURCE3 313 1.1810
    angle_coeff 479 harmonic 49.82 109.32   # SOURCE3 91 1.0325
    angle_coeff 480 harmonic 49.90 109.45   # SOURCE3 53 0.9555
    angle_coeff 481 harmonic 50.11 108.57   # SOURCE3 6 0.0764
    angle_coeff 482 harmonic 50.11 108.57   # SOURCE3 6 same_as_h1-c3-nc
    angle_coeff 483 harmonic 49.73 109.96   # SOURCE3 70 0.7000
    angle_coeff 484 harmonic 48.66 105.15   # SOURCE4 16 0.4950
    angle_coeff 485 harmonic 52.53 117.19   # SOURCE3 6 0.0003
    angle_coeff 486 harmonic 50.97 109.88   # SOURCE3 63 1.3172
    angle_coeff 487 harmonic 50.84 108.82   # SOURCE3 541 0.8042
    angle_coeff 488 harmonic 54.25 107.99   # SOURCE4 72 1.1862
    angle_coeff 489 harmonic 42.89 108.66   # SOURCE3 201 0.3834
    angle_coeff 490 harmonic 41.18 112.60   # SOURCE3 6 0.0026
    angle_coeff 491 harmonic 43.86 108.11   # SOURCE3 160 0.5518
    angle_coeff 492 harmonic 42.40 109.21   # SOURCE3 22 1.2028
    angle_coeff 493 harmonic 42.40 109.34   # SOURCE3 356 0.6573
    angle_coeff 494 harmonic 42.83 108.69   # SOURCE3 90 0.2749
    angle_coeff 495 harmonic 43.65 108.09   # SOURCE3 93 0.2556
    angle_coeff 496 harmonic 39.00 109.19   # SOURCE3 29 3.1352
    angle_coeff 497 harmonic 38.69 104.99   # SOURCE3 2 0.0000
    angle_coeff 498 harmonic 49.08 110.22   # SOURCE3 6 0.2133
    angle_coeff 499 harmonic 49.37 109.80   # SOURCE4 189 1.2893
    angle_coeff 500 harmonic 50.22 107.38   # SOURCE4 258 1.3140
    angle_coeff 501 harmonic 50.27 107.66   # SOURCE3 6 1.4096
    angle_coeff 502 harmonic 49.85 109.47   # SOURCE3 10 0.3133
    angle_coeff 503 harmonic 49.85 109.47   # SOURCE3 10 same_as_h2-c3-nc
    angle_coeff 504 harmonic 49.60 110.33   # SOURCE4 102 1.0596
    angle_coeff 505 harmonic 47.83 108.69   # SOURCE3 4 0.0000
    angle_coeff 506 harmonic 54.38 108.97   # SOURCE3 4 0.0000
    angle_coeff 507 harmonic 51.29 108.30   # SOURCE3 6 0.5715
    angle_coeff 508 harmonic 50.84 108.58   # SOURCE3 44 1.2773
    angle_coeff 509 harmonic 42.93 108.58   # SOURCE3 8 0.2408
    angle_coeff 510 harmonic 42.32 106.75   # SOURCE3 4 0.0000
    angle_coeff 511 harmonic 44.20 106.54   # SOURCE4 27 0.9934
    angle_coeff 512 harmonic 42.68 107.87   # SOURCE3 6 0.4376
    angle_coeff 513 harmonic 42.34 109.75   # SOURCE3 10 0.3442
    angle_coeff 514 harmonic 49.73 108.39   # SOURCE4 12 1.7932
    angle_coeff 515 harmonic 49.91 109.37   # SOURCE3 1 0.0000
    angle_coeff 516 harmonic 49.91 109.37   # SOURCE3 1 same_as_h3-c3-nc
    angle_coeff 517 harmonic 49.53 110.78   # SOURCE4 5 1.5993
    angle_coeff 518 harmonic 50.09 112.03   # SOURCE4 17 1.0957
    angle_coeff 519 harmonic 42.42 109.27   # SOURCE4 8 0.8367
    angle_coeff 520 harmonic 39.43 108.35   # SOURCE3 2380 0.9006
    angle_coeff 521 harmonic 38.62 104.99   # SOURCE3 1
    angle_coeff 522 harmonic 49.29 109.50   # SOURCE3 1
    angle_coeff 523 harmonic 49.42 109.80   # SOURCE2 5 2.0070
    angle_coeff 524 harmonic 49.01 107.90   # SOURCE3 1
    angle_coeff 525 harmonic 49.78 109.50   # SOURCE3 1
    angle_coeff 526 harmonic 49.90 109.50   # SOURCE3 1
    angle_coeff 527 harmonic 49.38 111.54   # SOURCE3 1
    angle_coeff 528 harmonic 48.19 107.20   # SOURCE2 1 0.0000
    angle_coeff 529 harmonic 51.07 109.50   # SOURCE3 1
    angle_coeff 530 harmonic 50.87 108.70   # SOURCE2 13 2.3739
    angle_coeff 531 harmonic 52.37 110.18   # SOURCE3 25 0.4057
    angle_coeff 532 harmonic 52.73 110.14   # SOURCE3 325 0.5126
    angle_coeff 533 harmonic 53.21 109.59   # SOURCE3 87 0.3196
    angle_coeff 534 harmonic 53.84 109.64   # SOURCE3 69 0.8112
    angle_coeff 535 harmonic 53.46 109.74   # SOURCE3 84 0.3474
    angle_coeff 536 harmonic 53.86 109.54   # SOURCE3 39 0.1999
    angle_coeff 537 harmonic 43.12 107.50   # SOURCE2 1 0.0000
    angle_coeff 538 harmonic 43.84 108.20   # SOURCE3 1
    angle_coeff 539 harmonic 42.66 107.87   # SOURCE2 3 2.0981
    angle_coeff 540 harmonic 42.51 108.76   # SOURCE2 3 1.6891
    angle_coeff 541 harmonic 39.04 110.74   # SOURCE3 137 0.5531
    angle_coeff 542 harmonic 49.02 107.91   # SOURCE3 148 0.5899
    angle_coeff 543 harmonic 61.98 113.12   # SOURCE3 1 0.0000
angle_coeff 544 harmonic 71.09 105.07   # HF/6-31G* 1
    angle_coeff 545 harmonic 69.89 107.70   # SOURCE3 1 0.0000
    angle_coeff 546 harmonic 69.26 111.06   # SOURCE4 5 0.7868
    angle_coeff 547 harmonic 70.15 111.82   # SOURCE4 10 0.3451
    angle_coeff 548 harmonic 70.04 111.23   # SOURCE4 6 1.0463
    angle_coeff 549 harmonic 69.61 109.59   # SOURCE4 27 1.8125
    angle_coeff 550 harmonic 68.79 113.29   # SOURCE3 1 0.0000
    angle_coeff 551 harmonic 68.79 113.29   # SOURCE3 1 same_as_n3-c3-nc
    angle_coeff 552 harmonic 69.74 110.08   # SOURCE4 21 1.0686
    angle_coeff 553 harmonic 70.71 110.63   # SOURCE4 20 1.0177
    angle_coeff 554 harmonic 71.15 108.33   # SOURCE4 17 1.9545
    angle_coeff 555 harmonic 81.55 109.51   # SOURCE4 10 1.5002
    angle_coeff 556 harmonic 64.75 107.73   # SOURCE4 18 1.7621
    angle_coeff 557 harmonic 67.13 113.32   # SOURCE3 1 0.0000
    angle_coeff 558 harmonic 69.06 113.49   # SOURCE3 1 0.0000
    angle_coeff 559 harmonic 71.27 109.06   # SOURCE4 170 0.5450
    angle_coeff 560 harmonic 69.96 110.61   # SOURCE3 1 0.0000
    angle_coeff 561 harmonic 69.34 112.43   # SOURCE3 1 0.0000
    angle_coeff 562 harmonic 69.28 115.41   # SOURCE3 3 1.0288
    angle_coeff 563 harmonic 69.96 110.61   # SOURCE3 1 same_as_nc-c3-nc
    angle_coeff 564 harmonic 69.34 112.43   # SOURCE3 1 same_as_nc-c3-nh
    angle_coeff 565 harmonic 69.28 115.41   # SOURCE3 3 same_as_nc-c3-os
    angle_coeff 566 harmonic 71.41 105.87   # SOURCE3 1 0.0000
    angle_coeff 567 harmonic 70.47 112.36   # SOURCE4 12 0.7775
    angle_coeff 568 harmonic 71.26 108.93   # SOURCE4 17 1.3775
    angle_coeff 569 harmonic 80.62 112.50   # SOURCE4 5 1.7371
    angle_coeff 570 harmonic 64.53 108.88   # SOURCE4 8 2.1521
    angle_coeff 571 harmonic 68.82 112.34   # SOURCE4 5 1.1443
    angle_coeff 572 harmonic 69.39 111.03   # SOURCE4 15 1.8216
    angle_coeff 573 harmonic 68.78 113.81   # SOURCE3 1 0.0000
    angle_coeff 574 harmonic 70.54 108.34   # SOURCE4 11 2.1727
    angle_coeff 575 harmonic 70.36 112.54   # SOURCE4 31 1.1295
    angle_coeff 576 harmonic 68.37 104.47   # SOURCE4 5 0.9726
    angle_coeff 577 harmonic 71.14 109.16   # SOURCE4 153 0.8778
    angle_coeff 578 harmonic 81.48 110.05   # SOURCE4 5 1.2965
    angle_coeff 579 harmonic 72.71 109.23   # SOURCE4 8 1.4978
    angle_coeff 580 harmonic 72.38 109.21   # SOURCE4 85 1.1964
    angle_coeff 581 harmonic 82.83 108.86   # SOURCE4 33 1.2025
    angle_coeff 582 harmonic 63.30 115.46   # SOURCE3 1 0.0000
    angle_coeff 583 harmonic 74.43 122.30   # SOURCE3 1 0.0000
    angle_coeff 584 harmonic 71.72 110.24   # SOURCE3 17 2.1340
    angle_coeff 585 harmonic 82.86 108.36   # SOURCE4 22 2.1937
    angle_coeff 586 harmonic 65.36 107.98   # SOURCE4 20 1.7464
    angle_coeff 587 harmonic 98.16 110.48   # SOURCE3 1 0.0000
    angle_coeff 588 harmonic 98.88 110.16   # SOURCE3 1 0.0000
    angle_coeff 589 harmonic 100.59 110.13   # SOURCE4 33 2.4116
    angle_coeff 590 harmonic 78.88 111.30   # SOURCE4 5 2.0560
    angle_coeff 591 harmonic 62.40 112.29   # SOURCE3 2 1.2724
    angle_coeff 592 harmonic 62.62 113.52   # SOURCE3 1
    angle_coeff 593 harmonic 63.71 111.75   # SOURCE3 1 0.0000
    angle_coeff 594 harmonic 60.82 116.26   # SOURCE3 1 0.0000
    angle_coeff 595 harmonic 62.33 110.73   # SOURCE3 1
    angle_coeff 596 harmonic 58.31 123.35   # SOURCE3 1 0.0000
    angle_coeff 597 harmonic 62.40 110.57   # SOURCE4 15 1.4311
    angle_coeff 598 harmonic 67.31 117.60   # SOURCE3 1
    angle_coeff 599 harmonic 63.48 118.13   # SOURCE3 8 0.6041
    angle_coeff 600 harmonic 64.70 120.00   # SOURCE3 1
    angle_coeff 601 harmonic 65.86 120.00   # SOURCE3 1
    angle_coeff 602 harmonic 62.95 120.00   # SOURCE3 1
    angle_coeff 603 harmonic 64.69 120.60   # SOURCE3 1
    angle_coeff 604 harmonic 62.24 120.00   # SOURCE3 1
    angle_coeff 605 harmonic 62.41 116.80   # SOURCE3 1
    angle_coeff 606 harmonic 63.84 120.63   # SOURCE3 60 0.7175
    angle_coeff 607 harmonic 63.64 120.63   # CORR 120
    angle_coeff 608 harmonic 63.64 120.63   # CORR 120
    angle_coeff 609 harmonic 66.59 118.78   # SOURCE4 59 1.1184
    angle_coeff 610 harmonic 67.33 116.66   # SOURCE4 408 0.9380
    angle_coeff 611 harmonic 67.18 119.97   # SOURCE3 1969 0.3480
    angle_coeff 612 harmonic 65.99 120.10   # SOURCE3 103 0.3451
    angle_coeff 613 harmonic 65.99 120.10   # SOURCE3 103 0.3451
    angle_coeff 614 harmonic 64.88 120.66   # SOURCE3 14 0.1564
    angle_coeff 615 harmonic 64.88 120.66   # SOURCE3 14 same_as_ca-ca-ce
    angle_coeff 616 harmonic 65.90 120.05   # SOURCE3 6 0.2397
    angle_coeff 617 harmonic 65.90 120.05   # SOURCE3 6 same_as_ca-ca-cg
    angle_coeff 618 harmonic 58.52 119.40   # SOURCE4 2459 0.5283
    angle_coeff 619 harmonic 67.16 119.07   # CORR 28
    angle_coeff 620 harmonic 67.16 119.07   # CORR 28
    angle_coeff 621 harmonic 64.48 120.83   # SOURCE4 71 1.3062
    angle_coeff 622 harmonic 63.77 120.86   # SOURCE4 17 2.0287
    angle_coeff 623 harmonic 67.51 118.95   # SOURCE4 967 0.3369
    angle_coeff 624 harmonic 48.24 121.09   # SOURCE3 57 1.4696
    angle_coeff 625 harmonic 48.46 120.01   # SOURCE3 2980 0.2511
    angle_coeff 626 harmonic 58.59 118.47   # SOURCE3 10 0.6181
angle_coeff 627 harmonic 68.92 118.50   # HF/6-31G* 1
    angle_coeff 628 harmonic 70.95 119.57   # SOURCE3 1
    angle_coeff 629 harmonic 67.28 118.41   # SOURCE3 6 0.1691
    angle_coeff 630 harmonic 67.97 119.89   # SOURCE3 18 0.2095
    angle_coeff 631 harmonic 70.21 118.34   # SOURCE3 54 3.6168
    angle_coeff 632 harmonic 69.16 122.63   # SOURCE3 83 1.1249
    angle_coeff 633 harmonic 70.14 119.72   # SOURCE3 22 3.3994
    angle_coeff 634 harmonic 70.14 119.72   # SOURCE3 22 3.3994
    angle_coeff 635 harmonic 67.74 119.88   # SOURCE3 24 0.3637
    angle_coeff 636 harmonic 67.74 119.88   # SOURCE3 24 0.3637
    angle_coeff 637 harmonic 69.34 120.13   # SOURCE3 193 0.6341
    angle_coeff 638 harmonic 66.88 119.54   # SOURCE3 10 1.3187
    angle_coeff 639 harmonic 71.85 123.29   # SOURCE4 11 1.2526
    angle_coeff 640 harmonic 69.85 119.94   # SOURCE3 14 0.1627
    angle_coeff 641 harmonic 69.79 119.20   # SOURCE3 52 0.5240
    angle_coeff 642 harmonic 77.87 114.36   # SOURCE3 1
    angle_coeff 643 harmonic 76.34 120.73   # SOURCE3 6 0.1273
    angle_coeff 644 harmonic 77.11 120.30   # SOURCE3 1
    angle_coeff 645 harmonic 77.50 120.28   # SOURCE4 5 0.0177
    angle_coeff 646 harmonic 76.26 120.45   # SOURCE3 20 0.2719
    angle_coeff 647 harmonic 76.26 120.45   # SOURCE3 20 0.2719
    angle_coeff 648 harmonic 76.37 120.53   # SOURCE3 10 0.4509
    angle_coeff 649 harmonic 77.43 119.98   # SOURCE3 6 0.0670
    angle_coeff 650 harmonic 61.72 119.15   # SOURCE3 1
    angle_coeff 651 harmonic 62.18 120.54   # SOURCE4 36 1.2154
    angle_coeff 652 harmonic 62.22 122.55   # SOURCE3 4 0.0000
    angle_coeff 653 harmonic 61.32 121.78   # SOURCE4 17 1.2849
    angle_coeff 654 harmonic 62.03 119.93   # SOURCE3 16 0.3901
    angle_coeff 655 harmonic 60.68 119.18   # SOURCE3 6 0.0434
    angle_coeff 656 harmonic 61.64 119.89   # SOURCE3 24 1.8813
    angle_coeff 657 harmonic 62.61 118.06   # SOURCE3 1
    angle_coeff 658 harmonic 62.65 120.00   # SOURCE3 1
    angle_coeff 659 harmonic 64.64 120.14   # SOURCE3 40 0.4788
    angle_coeff 660 harmonic 64.63 124.30   # SOURCE4 10 0.6423
    angle_coeff 661 harmonic 69.19 118.02   # CORR 64
    angle_coeff 662 harmonic 69.19 118.02   # CORR 64
    angle_coeff 663 harmonic 67.44 119.85   # SOURCE4 9 0.7001
    angle_coeff 664 harmonic 68.24 117.59   # CORR 44
    angle_coeff 665 harmonic 68.24 117.59   # CORR 44
    angle_coeff 666 harmonic 65.26 121.53   # SOURCE4 12 0.1831
    angle_coeff 667 harmonic 46.51 115.90   # SOURCE3 1
    angle_coeff 668 harmonic 54.17 118.72   # SOURCE3 1
    angle_coeff 669 harmonic 58.19 120.31   # SOURCE4 18 0.5607
    angle_coeff 670 harmonic 61.21 116.15   # SOURCE4 50 0.6047
    angle_coeff 671 harmonic 67.71 117.94   # SOURCE4 91 1.0536
    angle_coeff 672 harmonic 64.40 130.80   # SOURCE3 1
    angle_coeff 673 harmonic 64.40 130.80   # SOURCE3 1 same_as_c-ca-nc
    angle_coeff 674 harmonic 67.10 119.39   # SOURCE4 16 0.1724
    angle_coeff 675 harmonic 48.15 120.03   # SOURCE4 27 0.4431
    angle_coeff 676 harmonic 47.94 121.08   # CORR 24
    angle_coeff 677 harmonic 72.91 108.79   # SOURCE4 165 0.5166
    angle_coeff 678 harmonic 68.56 123.72   # SOURCE4 50 0.8176
    angle_coeff 679 harmonic 68.66 121.52   # SOURCE4 11 0.5438
    angle_coeff 680 harmonic 69.26 120.96   # SOURCE4 12 1.1400
    angle_coeff 681 harmonic 63.87 112.75   # SOURCE4 8 0.6216
    angle_coeff 682 harmonic 63.91 111.18   # CORR 4
    angle_coeff 683 harmonic 47.94 121.08   # CORR 24
    angle_coeff 684 harmonic 63.91 111.18   # CORR 4
    angle_coeff 685 harmonic 68.05 117.50   # SOURCE3 1
    angle_coeff 686 harmonic 71.69 114.58   # SOURCE4 19 0.2987
    angle_coeff 687 harmonic 49.48 116.02   # SOURCE3 1
    angle_coeff 688 harmonic 51.88 114.65   # SOURCE3 5 1.5484
    angle_coeff 689 harmonic 51.82 115.94   # SOURCE3 52 0.7370
    angle_coeff 690 harmonic 51.46 118.36   # SOURCE3 1
    angle_coeff 691 harmonic 51.46 118.36   # SOURCE3 1 same_as_h4-ca-nc
    angle_coeff 692 harmonic 52.30 111.15   # SOURCE3 1
    angle_coeff 693 harmonic 42.40 116.19   # SOURCE3 1
    angle_coeff 694 harmonic 51.76 116.35   # SOURCE3 30 0.5545
    angle_coeff 695 harmonic 50.70 122.11   # SOURCE3 1
    angle_coeff 696 harmonic 50.70 122.11   # SOURCE3 1 same_as_h5-ca-nc
    angle_coeff 697 harmonic 52.97 116.00   # SOURCE2 1 0.0000
    angle_coeff 698 harmonic 50.08 122.56   # SOURCE3 1
    angle_coeff 699 harmonic 62.29 119.28   # SOURCE3 1
angle_coeff 700 harmonic 70.73 117.03   # HF/6-31G* 1
    angle_coeff 701 harmonic 75.05 120.00   # SOURCE3 1
    angle_coeff 702 harmonic 73.80 119.60   # SOURCE3 1
    angle_coeff 703 harmonic 67.65 116.82   # SOURCE3 1
    angle_coeff 704 harmonic 76.48 107.65   # SOURCE4 5 0.8751
    angle_coeff 705 harmonic 70.60 127.07   # SOURCE4 237 1.9392
    angle_coeff 706 harmonic 72.48 118.62   # SOURCE4 29 0.9759
    angle_coeff 707 harmonic 70.78 127.19   # SOURCE4 585 1.1793
    angle_coeff 708 harmonic 71.12 126.53   # CORR 22
    angle_coeff 709 harmonic 71.12 126.53   # CORR 22
    angle_coeff 710 harmonic 73.20 116.95   # SOURCE4 765 0.8040
    angle_coeff 711 harmonic 73.57 117.30   # SOURCE4 64 0.9290
    angle_coeff 712 harmonic 72.54 119.66   # SOURCE4 76 0.6493
    angle_coeff 713 harmonic 64.31 117.59   # SOURCE4 15 1.4616
    angle_coeff 714 harmonic 64.10 119.30   # SOURCE4 41 1.3420
    angle_coeff 715 harmonic 70.67 128.74   # SOURCE3 1
    angle_coeff 716 harmonic 72.77 118.86   # SOURCE3 1
    angle_coeff 717 harmonic 70.67 128.74   # SOURCE3 1 same_as_nc-ca-nc
    angle_coeff 718 harmonic 72.77 118.86   # SOURCE3 1 same_as_nc-ca-nh
    angle_coeff 719 harmonic 71.40 120.98   # SOURCE3 1
    angle_coeff 720 harmonic 69.66 123.86   # SOURCE3 1
    angle_coeff 721 harmonic 69.66 123.86   # SOURCE3 1 same_as_n-ca-nc
    angle_coeff 722 harmonic 71.29 116.16   # SOURCE3 1
    angle_coeff 723 harmonic 67.42 117.14   # SOURCE3 1
    angle_coeff 724 harmonic 72.63 120.00   # SOURCE3 1
    angle_coeff 725 harmonic 78.21 126.82   # SOURCE3 1
    angle_coeff 726 harmonic 74.01 113.73   # SOURCE3 1
    angle_coeff 727 harmonic 94.48 121.20   # SOURCE3 1
    angle_coeff 728 harmonic 95.21 121.46   # SOURCE3 1
    angle_coeff 729 harmonic 97.33 120.00   # SOURCE3 1
    angle_coeff 730 harmonic 64.96 105.81   # SOURCE3 1
    angle_coeff 731 harmonic 66.03 105.81   # SOURCE3 1
    angle_coeff 732 harmonic 61.27 120.24   # SOURCE3 1
    angle_coeff 733 harmonic 61.42 125.14   # SOURCE3 1
    angle_coeff 734 harmonic 62.91 115.15   # SOURCE3 1
    angle_coeff 735 harmonic 66.91 113.10   # SOURCE3 1
    angle_coeff 736 harmonic 63.34 110.74   # SOURCE3 1 0.0000
    angle_coeff 737 harmonic 63.19 121.46   # SOURCE3 5 1.6264
    angle_coeff 738 harmonic 65.09 115.32   # SOURCE3 1
    angle_coeff 739 harmonic 69.92 122.34   # SOURCE3 1
    angle_coeff 740 harmonic 67.17 116.78   # SOURCE3 1
    angle_coeff 741 harmonic 48.65 115.95   # SOURCE3 1
    angle_coeff 742 harmonic 72.77 119.12   # SOURCE3 2 0.0000
    angle_coeff 743 harmonic 64.67 119.16   # SOURCE3 2 0.0000
    angle_coeff 744 harmonic 62.82 116.05   # SOURCE3 11 1.0986
    angle_coeff 745 harmonic 62.59 118.54   # SOURCE4 240 1.3614
    angle_coeff 746 harmonic 63.38 117.47   # CORR 46
    angle_coeff 747 harmonic 63.38 117.47   # CORR 46
    angle_coeff 748 harmonic 63.44 116.37   # CORR 233
    angle_coeff 749 harmonic 63.44 116.37   # CORR 233
    angle_coeff 750 harmonic 64.26 115.00   # SOURCE2 1 0.0000
    angle_coeff 751 harmonic 64.26 115.00   # SOURCE2 1 same_as_c3-c-cg
    angle_coeff 752 harmonic 58.18 111.99   # SOURCE3 2 0.0125
    angle_coeff 753 harmonic 66.93 110.70   # SOURCE2 1 0.0000
    angle_coeff 754 harmonic 46.11 114.40   # SOURCE4 57 0.4032
    angle_coeff 755 harmonic 46.01 115.22   # SOURCE3 15 0.3181
    angle_coeff 756 harmonic 56.87 112.94   # SOURCE3 1 0.0000
    angle_coeff 757 harmonic 66.62 114.53   # SOURCE3 1
    angle_coeff 758 harmonic 64.61 112.26   # SOURCE3 2 0.0000
    angle_coeff 759 harmonic 67.86 115.15   # SOURCE3 153 2.7443
    angle_coeff 760 harmonic 68.03 111.56   # CORR 12
    angle_coeff 761 harmonic 68.03 111.56   # CORR 12
    angle_coeff 762 harmonic 68.03 123.11   # SOURCE3 267 3.0977
    angle_coeff 763 harmonic 69.84 112.20   # SOURCE3 14 1.8324
    angle_coeff 764 harmonic 69.26 111.96   # SOURCE3 15 2.3072
    angle_coeff 765 harmonic 74.55 116.42   # SOURCE3 3 0.1291
    angle_coeff 766 harmonic 73.81 118.90   # SOURCE3 1
    angle_coeff 767 harmonic 74.19 114.85   # SOURCE3 1 0.0000
    angle_coeff 768 harmonic 74.19 114.85   # SOURCE3 1 same_as_c3-c-pe
    angle_coeff 769 harmonic 74.17 115.60   # SOURCE3 1 0.0000
    angle_coeff 770 harmonic 74.48 118.16   # SOURCE3 3 1.0735
    angle_coeff 771 harmonic 59.64 114.79   # SOURCE3 1
    angle_coeff 772 harmonic 59.65 114.72   # SOURCE3 1
    angle_coeff 773 harmonic 62.03 123.73   # SOURCE3 9 1.4528
    angle_coeff 774 harmonic 61.97 114.21   # SOURCE3 3 2.3916
    angle_coeff 775 harmonic 62.41 114.32   # SOURCE3 5 2.7478
    angle_coeff 776 harmonic 59.48 113.97   # SOURCE3 3 0.0610
    angle_coeff 777 harmonic 59.89 114.28   # SOURCE3 3 0.7341
    angle_coeff 778 harmonic 63.03 118.58   # SOURCE4 144 2.1146
    angle_coeff 779 harmonic 64.24 116.07   # CORR 257
    angle_coeff 780 harmonic 64.24 116.07   # CORR 257
    angle_coeff 781 harmonic 63.21 118.92   # CORR 36
    angle_coeff 782 harmonic 63.21 118.92   # CORR 36
    angle_coeff 783 harmonic 46.52 115.14   # SOURCE4 30 0.7320
    angle_coeff 784 harmonic 46.80 114.12   # SOURCE3 1 0.0000
    angle_coeff 785 harmonic 68.47 115.14   # SOURCE4 571 1.4648
    angle_coeff 786 harmonic 67.74 114.39   # SOURCE4 5 0.2958
    angle_coeff 787 harmonic 68.67 123.44   # SOURCE3 18 2.5574
    angle_coeff 788 harmonic 70.11 113.44   # SOURCE4 222 0.8421
    angle_coeff 789 harmonic 68.78 115.54   # SOURCE3 5 2.6708
    angle_coeff 790 harmonic 62.52 123.04   # SOURCE4 12 0.7935
    angle_coeff 791 harmonic 61.05 118.63   # SOURCE3 1 0.0000
    angle_coeff 792 harmonic 62.45 115.13   # SOURCE4 12 1.0069
    angle_coeff 793 harmonic 63.98 115.68   # SOURCE4 8 0.4970
    angle_coeff 794 harmonic 61.82 124.89   # SOURCE4 8 1.9479
    angle_coeff 795 harmonic 62.26 124.56   # SOURCE4 32 2.4696
    angle_coeff 796 harmonic 64.60 121.42   # SOURCE4 6 0.5507
    angle_coeff 797 harmonic 63.27 126.11   # SOURCE3 2 0.0000
    angle_coeff 798 harmonic 65.34 124.66   # CORR 16
    angle_coeff 799 harmonic 66.24 121.77   # CORR 32
    angle_coeff 800 harmonic 69.09 117.02   # SOURCE3 2 0.0703
    angle_coeff 801 harmonic 48.69 122.72   # SOURCE3 2 0.0092
    angle_coeff 802 harmonic 67.74 126.90   # SOURCE3 1 0.0000
    angle_coeff 803 harmonic 70.10 120.79   # CORR 13
    angle_coeff 804 harmonic 61.72 116.86   # SOURCE3 5 0.1653
    angle_coeff 805 harmonic 61.96 125.89   # CORR 127
    angle_coeff 806 harmonic 64.66 115.97   # SOURCE3 4 3.0507
    angle_coeff 807 harmonic 64.81 119.45   # SOURCE3 35 8.2040
    angle_coeff 808 harmonic 65.34 117.84   # CORR 2
    angle_coeff 809 harmonic 45.11 121.52   # SOURCE3 32 3.2091
    angle_coeff 810 harmonic 65.80 126.87   # CORR 9
    angle_coeff 811 harmonic 66.33 119.11   # CORR 68
    angle_coeff 812 harmonic 65.50 122.78   # CORR 632
    angle_coeff 813 harmonic 65.90 120.94   # CORR 309
    angle_coeff 814 harmonic 66.32 122.13   # CORR 475
    angle_coeff 815 harmonic 67.54 116.88   # CORR 203
    angle_coeff 816 harmonic 61.21 121.66   # CORR 171
    angle_coeff 817 harmonic 62.30 111.68   # SOURCE3 2 6.1226
    angle_coeff 818 harmonic 61.73 118.34   # SOURCE4 26 1.0692
    angle_coeff 819 harmonic 67.66 111.04   # SOURCE3 9 7.9455
    angle_coeff 820 harmonic 68.23 113.51   # SOURCE3 26 7.4229
    angle_coeff 821 harmonic 62.51 127.87   # SOURCE4 11 1.7579
    angle_coeff 822 harmonic 45.57 128.66   # SOURCE3 10 3.1167
    angle_coeff 823 harmonic 46.40 124.04   # SOURCE3 34 3.6691
    angle_coeff 824 harmonic 68.46 117.67   # CORR 18
    angle_coeff 825 harmonic 67.69 120.67   # CORR 162
    angle_coeff 826 harmonic 67.92 123.02   # CORR 188
    angle_coeff 827 harmonic 67.46 122.45   # SOURCE4 9 1.4092
    angle_coeff 828 harmonic 69.61 117.71   # CORR 21
    angle_coeff 829 harmonic 69.82 115.16   # CORR 134
    angle_coeff 830 harmonic 62.30 120.51   # CORR 43
    angle_coeff 831 harmonic 65.60 120.92   # CORR 22
    angle_coeff 832 harmonic 63.60 117.42   # CORR 126
    angle_coeff 833 harmonic 63.42 121.17   # CORR 64
    angle_coeff 834 harmonic 64.02 111.67   # SOURCE3 4 5.5146
    angle_coeff 835 harmonic 63.55 122.95   # SOURCE3 1 0.0000
    angle_coeff 836 harmonic 63.72 122.69   # SOURCE3 2 0.0000
    angle_coeff 837 harmonic 64.80 116.04   # CORR 56
    angle_coeff 838 harmonic 67.88 110.70   # SOURCE3 54 3.4091
    angle_coeff 839 harmonic 68.16 114.19   # SOURCE3 517 6.5960
    angle_coeff 840 harmonic 62.78 127.20   # CORR 42
    angle_coeff 841 harmonic 65.88 122.59   # CORR 39
    angle_coeff 842 harmonic 63.63 126.15   # CORR 27
    angle_coeff 843 harmonic 65.25 121.42   # CORR 1708
    angle_coeff 844 harmonic 65.73 112.79   # SOURCE3 1 0.0000
    angle_coeff 845 harmonic 63.20 122.73   # CORR 10
    angle_coeff 846 harmonic 64.64 115.68   # SOURCE4 6 1.2033
    angle_coeff 847 harmonic 66.35 119.41   # SOURCE4 7 0.4917
    angle_coeff 848 harmonic 64.98 118.14   # SOURCE4 7 0.7745
    angle_coeff 849 harmonic 45.56 129.47   # SOURCE3 171 2.2734
    angle_coeff 850 harmonic 47.14 120.86   # CORR 1751
    angle_coeff 851 harmonic 58.39 116.05   # CORR 24
    angle_coeff 852 harmonic 69.48 121.15   # CORR 12
    angle_coeff 853 harmonic 67.95 119.89   # SOURCE3 36 0.2095
    angle_coeff 854 harmonic 72.21 106.80   # SOURCE3 33 0.6297
    angle_coeff 855 harmonic 67.53 121.69   # CORR 105
    angle_coeff 856 harmonic 71.15 112.56   # SOURCE3 141 4.2871
    angle_coeff 857 harmonic 68.41 119.51   # CORR 228
    angle_coeff 858 harmonic 68.53 121.96   # CORR 27
    angle_coeff 859 harmonic 69.34 117.23   # CORR 211
    angle_coeff 860 harmonic 80.79 115.36   # SOURCE3 84 same_as_cd-cd-pc
    angle_coeff 861 harmonic 62.45 120.12   # CORR 31
    angle_coeff 862 harmonic 59.22 128.36   # SOURCE4 8 0.9813
    angle_coeff 863 harmonic 64.02 111.67   # SOURCE3 4 5.5146
    angle_coeff 864 harmonic 67.89 120.23   # CORR 133
    angle_coeff 865 harmonic 63.67 128.41   # CORR 210
    angle_coeff 866 harmonic 57.46 123.70   # CORR 62
    angle_coeff 867 harmonic 67.42 121.08   # SOURCE4 28 0.8788
    angle_coeff 868 harmonic 47.19 129.11   # SOURCE3 418 3.1355
    angle_coeff 869 harmonic 48.35 122.89   # SOURCE3 584 2.9334
    angle_coeff 870 harmonic 70.72 115.52   # SOURCE3 52 1.3322
    angle_coeff 871 harmonic 72.91 109.42   # SOURCE3 265 2.6051
    angle_coeff 872 harmonic 72.01 111.75   # CORR 1101
    angle_coeff 873 harmonic 68.69 123.89   # CORR 106
    angle_coeff 874 harmonic 65.78 128.95   # SOURCE4 117 1.4740
    angle_coeff 875 harmonic 69.56 123.89   # CORR 106
    angle_coeff 876 harmonic 69.96 120.30   # SOURCE3 64 5.4354
    angle_coeff 877 harmonic 65.44 111.55   # CORR 884
    angle_coeff 878 harmonic 60.54 124.91   # CORR 41
    angle_coeff 879 harmonic 66.32 124.22   # CORR 48
    angle_coeff 880 harmonic 67.01 121.29   # CORR 37
    angle_coeff 881 harmonic 67.80 121.51   # CORR 37
    angle_coeff 882 harmonic 68.17 119.03   # CORR 66
    angle_coeff 883 harmonic 61.83 121.44   # CORR 38
    angle_coeff 884 harmonic 66.16 116.87   # SOURCE4 16 0.5322
    angle_coeff 885 harmonic 67.51 122.35   # SOURCE4 5 0.8112
    angle_coeff 886 harmonic 62.33 120.70   # SOURCE4 12 0.9090
    angle_coeff 887 harmonic 47.13 115.45   # SOURCE4 5 0.8021
    angle_coeff 888 harmonic 46.99 117.02   # SOURCE3 56 1.9713
    angle_coeff 889 harmonic 59.37 121.61   # SOURCE4 12 0.3436
    angle_coeff 890 harmonic 59.35 122.97   # CORR 6
    angle_coeff 891 harmonic 58.09 119.85   # SOURCE4 11 1.0626
    angle_coeff 892 harmonic 68.54 120.89   # CORR 2
    angle_coeff 893 harmonic 68.11 116.32   # CORR 21
    angle_coeff 894 harmonic 70.19 111.86   # SOURCE3 36 2.3407
    angle_coeff 895 harmonic 66.19 123.47   # CORR 24
    angle_coeff 896 harmonic 67.92 116.21   # CORR 33
    angle_coeff 897 harmonic 67.50 121.67   # CORR 47
    angle_coeff 898 harmonic 67.11 119.88   # SOURCE4 6 0.3139
    angle_coeff 899 harmonic 68.91 125.71   # SOURCE3 66 2.4784
    angle_coeff 900 harmonic 70.04 113.64   # CORR 53
    angle_coeff 901 harmonic 71.00 113.10   # CORR 85
    angle_coeff 902 harmonic 67.83 119.39   # CORR 78
    angle_coeff 903 harmonic 70.50 112.30   # SOURCE3 6 2.7842
    angle_coeff 904 harmonic 61.67 127.94   # SOURCE4 12 0.9342
    angle_coeff 905 harmonic 63.47 112.52   # SOURCE4 10 0.6933
    angle_coeff 906 harmonic 65.61 127.75   # SOURCE4 12 1.7156
    angle_coeff 907 harmonic 67.94 118.08   # SOURCE4 10 0.0955
    angle_coeff 908 harmonic 64.80 116.04   # CORR 56
    angle_coeff 909 harmonic 63.88 117.46   # SOURCE4 13 0.1625
    angle_coeff 910 harmonic 70.19 111.86   # SOURCE3 36 2.3407
    angle_coeff 911 harmonic 67.92 116.21   # CORR 33
    angle_coeff 912 harmonic 68.65 113.75   # SOURCE4 14 0.0860
    angle_coeff 913 harmonic 68.91 125.71   # SOURCE3 66 2.4784
    angle_coeff 914 harmonic 71.00 113.10   # CORR 85
    angle_coeff 915 harmonic 70.50 112.30   # SOURCE3 6 2.7842
    angle_coeff 916 harmonic 64.34 115.80   # CORR 74
    angle_coeff 917 harmonic 64.04 116.89   # SOURCE4 11 1.6021
    angle_coeff 918 harmonic 63.95 116.25   # SOURCE4 6 0.6351
    angle_coeff 919 harmonic 46.93 114.88   # SOURCE4 19 0.3355
    angle_coeff 920 harmonic 46.93 115.22   # SOURCE3 7 2.4188
    angle_coeff 921 harmonic 68.80 115.27   # CORR 32
    angle_coeff 922 harmonic 69.27 122.92   # SOURCE3 17 3.5085
    angle_coeff 923 harmonic 70.32 114.09   # CORR 128
    angle_coeff 924 harmonic 70.16 112.28   # CORR 149
    angle_coeff 925 harmonic 64.09 117.80   # SOURCE3 1 0.0000
    angle_coeff 926 harmonic 63.94 110.39   # SOURCE4 5 0.6050
    angle_coeff 927 harmonic 64.34 115.80   # CORR 74
    angle_coeff 928 harmonic 46.93 115.22   # SOURCE3 7 same_as_ce-c-ha
    angle_coeff 929 harmonic 68.80 115.27   # CORR 32
    angle_coeff 930 harmonic 69.27 122.92   # SOURCE3 17 3.5085
    angle_coeff 931 harmonic 70.32 114.09   # CORR 128
    angle_coeff 932 harmonic 70.16 112.28   # CORR 149
    angle_coeff 933 harmonic 64.09 117.80   # SOURCE3 1 same_as_ce-c-s
    angle_coeff 934 harmonic 65.44 115.38   # SOURCE3 1 0.0000
    angle_coeff 935 harmonic 47.80 113.90   # SOURCE2 1 0.0000
    angle_coeff 936 harmonic 70.21 122.31   # SOURCE3 2 0.0000
    angle_coeff 937 harmonic 44.62 116.36   # SOURCE4 5 0.5586
    angle_coeff 938 harmonic 50.39 117.62   # SOURCE3 53 0.9721
    angle_coeff 939 harmonic 50.22 119.66   # SOURCE3 294 2.4702
    angle_coeff 940 harmonic 50.00 120.03   # SOURCE3 16 2.3863
    angle_coeff 941 harmonic 51.39 119.11   # SOURCE3 135 1.6946
    angle_coeff 942 harmonic 52.27 111.89   # SOURCE3 61 2.3500
    angle_coeff 943 harmonic 42.95 117.75   # SOURCE3 40 3.1156
    angle_coeff 944 harmonic 50.84 115.72   # CORR 20
    angle_coeff 945 harmonic 49.76 122.10   # SOURCE3 16 1.4626
    angle_coeff 946 harmonic 49.29 123.70   # SOURCE3 6 0.3547
    angle_coeff 947 harmonic 50.13 125.38   # SOURCE3 40 2.2157
    angle_coeff 948 harmonic 51.30 116.33   # SOURCE3 12 3.2919
    angle_coeff 949 harmonic 42.19 122.00   # SOURCE3 6 0.7237
    angle_coeff 950 harmonic 44.85 115.43   # SOURCE2 3 0.6549
    angle_coeff 951 harmonic 49.82 121.50   # SOURCE2 1 0.0000
    angle_coeff 952 harmonic 50.73 116.54   # SOURCE3 5 1.4482
    angle_coeff 953 harmonic 51.41 118.88   # SOURCE3 20 2.8923
    angle_coeff 954 harmonic 52.49 110.86   # SOURCE3 7 1.3846
    angle_coeff 955 harmonic 53.59 121.76   # SOURCE3 84 same_as_ha-cd-pc
    angle_coeff 956 harmonic 42.26 121.64   # SOURCE2 5 1.3276
    angle_coeff 957 harmonic 65.44 115.38   # SOURCE3 1 same_as_cg-c-cg
    angle_coeff 958 harmonic 47.80 113.90   # SOURCE2 1 same_as_cg-c-ha
    angle_coeff 959 harmonic 70.21 122.31   # SOURCE3 2 same_as_cg-c-o
    angle_coeff 960 harmonic 54.78 111.30   # SOURCE2 1 0.0000
    angle_coeff 961 harmonic 59.05 112.00   # SOURCE2 1 0.0000
    angle_coeff 962 harmonic 40.42 109.90   # SOURCE2 1 0.0000
    angle_coeff 963 harmonic 59.78 121.51   # SOURCE3 6 1.6987
    angle_coeff 964 harmonic 56.74 127.60   # SOURCE2 1 0.0000
    angle_coeff 965 harmonic 67.53 112.14   # SOURCE4 53 2.1247
    angle_coeff 966 harmonic 70.72 121.62   # CORR 231
    angle_coeff 967 harmonic 74.78 112.02   # SOURCE3 17 2.2434
    angle_coeff 968 harmonic 68.48 124.90   # SOURCE4 48 0.7933
    angle_coeff 969 harmonic 73.25 117.26   # SOURCE4 16 0.9090
    angle_coeff 970 harmonic 63.25 117.04   # SOURCE4 13 0.4187
    angle_coeff 971 harmonic 63.13 120.55   # SOURCE4 7 1.7547
    angle_coeff 972 harmonic 73.35 115.96   # CORR 222
    angle_coeff 973 harmonic 72.33 116.85   # CORR 35
    angle_coeff 974 harmonic 69.31 121.54   # SOURCE4 7 0.9221
    angle_coeff 975 harmonic 64.63 119.86   # SOURCE3 2 0.0000
    angle_coeff 976 harmonic 70.88 128.17   # SOURCE4 7 0.0269
    angle_coeff 977 harmonic 69.29 129.66   # SOURCE4 7 0.4306
    angle_coeff 978 harmonic 72.41 120.11   # SOURCE3 5 0.9313
    angle_coeff 979 harmonic 69.90 122.68   # SOURCE4 16 0.3393
    angle_coeff 980 harmonic 72.93 121.54   # CORR 22
    angle_coeff 981 harmonic 73.85 116.29   # CORR 209
    angle_coeff 982 harmonic 62.75 124.92   # SOURCE4 5 0.9563
    angle_coeff 983 harmonic 66.51 114.51   # SOURCE3 8 0.3449
    angle_coeff 984 harmonic 60.81 127.60   # SOURCE4 14 1.1650
    angle_coeff 985 harmonic 62.75 123.08   # SOURCE4 13 1.0531
    angle_coeff 986 harmonic 65.39 116.99   # SOURCE4 7 0.1657
    angle_coeff 987 harmonic 72.93 115.96   # SOURCE3 1 0.0000
    angle_coeff 988 harmonic 72.96 116.69   # CORR 25
    angle_coeff 989 harmonic 64.19 121.94   # CORR 91
    angle_coeff 990 harmonic 74.78 114.48   # SOURCE4 15 2.3208
    angle_coeff 991 harmonic 70.47 122.14   # CORR 59
    angle_coeff 992 harmonic 69.35 125.66   # CORR 64
    angle_coeff 993 harmonic 71.12 122.98   # CORR 229
    angle_coeff 994 harmonic 72.22 116.87   # CORR 79
    angle_coeff 995 harmonic 71.01 117.59   # SOURCE4 62 0.2199
    angle_coeff 996 harmonic 63.76 121.10   # SOURCE4 10 0.0957
    angle_coeff 997 harmonic 63.75 123.03   # CORR 45
    angle_coeff 998 harmonic 67.16 120.99   # SOURCE4 233 2.0333
    angle_coeff 999 harmonic 68.20 113.23   # SOURCE3 5 0.5615
    angle_coeff 1000 harmonic 68.18 111.39   # SOURCE4 14 0.4038
    angle_coeff 1001 harmonic 61.99 132.01   # SOURCE3 1 0.0000
    angle_coeff 1002 harmonic 62.44 121.37   # CORR 22
    angle_coeff 1003 harmonic 61.51 121.70   # CORR 39
    angle_coeff 1004 harmonic 85.45 64.60   # SOURCE2 1 0.0000
    angle_coeff 1005 harmonic 68.69 114.49   # SOURCE4 23 1.4914
    angle_coeff 1006 harmonic 68.88 122.82   # SOURCE4 97 2.2075
    angle_coeff 1007 harmonic 70.49 112.32   # SOURCE4 10 0.6413
    angle_coeff 1008 harmonic 70.06 111.48   # SOURCE4 16 1.3998
    angle_coeff 1009 harmonic 70.14 90.55   # SOURCE2 2 2.4500
    angle_coeff 1010 harmonic 75.43 91.54   # SOURCE4 249 0.5104
    angle_coeff 1011 harmonic 64.27 135.04   # SOURCE4 253 1.3450
    angle_coeff 1012 harmonic 69.09 112.48   # SOURCE4 5 1.0793
    angle_coeff 1013 harmonic 74.55 94.89   # SOURCE4 8 0.6016
    angle_coeff 1014 harmonic 63.27 126.11   # SOURCE3 2 0.0000
    angle_coeff 1015 harmonic 65.34 124.66   # CORR 16
    angle_coeff 1016 harmonic 69.09 117.02   # SOURCE3 2 same_as_c2-cc-cd
    angle_coeff 1017 harmonic 66.24 121.77   # CORR 32
    angle_coeff 1018 harmonic 48.69 122.72   # SOURCE3 2 same_as_c2-cc-ha
    angle_coeff 1019 harmonic 67.74 126.90   # SOURCE3 1 same_as_c2-cc-n
    angle_coeff 1020 harmonic 70.10 120.79   # CORR 13
    angle_coeff 1021 harmonic 61.96 125.89   # CORR 127
    angle_coeff 1022 harmonic 64.81 119.45   # SOURCE3 35 8.2040
    angle_coeff 1023 harmonic 64.66 115.97   # SOURCE3 4 3.0507
    angle_coeff 1024 harmonic 65.34 117.84   # CORR 2
    angle_coeff 1025 harmonic 45.11 121.52   # SOURCE3 32 3.2091
    angle_coeff 1026 harmonic 65.80 126.87   # CORR 9
    angle_coeff 1027 harmonic 66.33 119.11   # CORR 68
    angle_coeff 1028 harmonic 65.50 122.78   # CORR 632
    angle_coeff 1029 harmonic 66.32 122.13   # CORR 475
    angle_coeff 1030 harmonic 65.90 120.94   # CORR 309
    angle_coeff 1031 harmonic 67.54 116.88   # CORR 203
    angle_coeff 1032 harmonic 61.21 121.66   # CORR 171
    angle_coeff 1033 harmonic 68.23 113.51   # SOURCE3 26 7.4229
    angle_coeff 1034 harmonic 67.66 111.04   # SOURCE3 9 7.9455
    angle_coeff 1035 harmonic 65.09 125.10   # SOURCE4 9 1.9265
    angle_coeff 1036 harmonic 45.57 128.66   # SOURCE3 10 3.1167
    angle_coeff 1037 harmonic 46.40 124.04   # SOURCE3 34 3.6691
    angle_coeff 1038 harmonic 68.46 117.67   # CORR 18
    angle_coeff 1039 harmonic 67.03 123.45   # SOURCE4 39 1.9138
    angle_coeff 1040 harmonic 67.92 123.02   # CORR 188
    angle_coeff 1041 harmonic 67.69 120.67   # CORR 162
    angle_coeff 1042 harmonic 69.61 117.71   # CORR 21
    angle_coeff 1043 harmonic 69.82 115.16   # CORR 134
    angle_coeff 1044 harmonic 62.30 120.51   # CORR 43
    angle_coeff 1045 harmonic 65.60 120.92   # CORR 22
    angle_coeff 1046 harmonic 63.60 117.42   # CORR 126
    angle_coeff 1047 harmonic 63.42 121.17   # CORR 64
    angle_coeff 1048 harmonic 63.55 122.95   # SOURCE3 1 same_as_c-cc-ca
    angle_coeff 1049 harmonic 65.25 121.42   # CORR 1708
    angle_coeff 1050 harmonic 67.89 120.23   # CORR 133
    angle_coeff 1051 harmonic 68.16 114.19   # SOURCE3 517 6.5960
    angle_coeff 1052 harmonic 63.67 128.41   # CORR 210
    angle_coeff 1053 harmonic 64.92 126.05   # SOURCE4 30 1.4695
    angle_coeff 1054 harmonic 57.46 123.70   # CORR 62
    angle_coeff 1055 harmonic 63.93 122.13   # SOURCE4 10 0.8509
    angle_coeff 1056 harmonic 63.72 122.69   # SOURCE3 2 0.0000
    angle_coeff 1057 harmonic 63.20 122.73   # CORR 10
    angle_coeff 1058 harmonic 47.19 129.11   # SOURCE3 418 3.1355
    angle_coeff 1059 harmonic 48.35 122.89   # SOURCE3 584 2.9334
    angle_coeff 1060 harmonic 58.39 116.05   # CORR 24
    angle_coeff 1061 harmonic 70.72 115.52   # SOURCE3 52 1.3322
    angle_coeff 1062 harmonic 72.91 109.42   # SOURCE3 265 2.6051
    angle_coeff 1063 harmonic 69.42 123.82   # SOURCE4 14 0.3678
    angle_coeff 1064 harmonic 72.01 111.75   # CORR 1101
    angle_coeff 1065 harmonic 68.69 123.89   # CORR 106
    angle_coeff 1066 harmonic 69.56 123.89   # CORR 106
    angle_coeff 1067 harmonic 69.96 120.30   # SOURCE3 64 5.4354
    angle_coeff 1068 harmonic 65.44 111.55   # CORR 884
    angle_coeff 1069 harmonic 60.54 124.91   # CORR 41
    angle_coeff 1070 harmonic 67.88 110.70   # SOURCE3 54 3.4091
    angle_coeff 1071 harmonic 65.88 122.59   # CORR 39
    angle_coeff 1072 harmonic 62.78 127.20   # CORR 42
    angle_coeff 1073 harmonic 63.63 126.15   # CORR 27
    angle_coeff 1074 harmonic 63.17 120.93   # SOURCE4 6 1.2205
    angle_coeff 1075 harmonic 45.56 129.47   # SOURCE3 171 2.2734
    angle_coeff 1076 harmonic 47.14 120.86   # CORR 1751
    angle_coeff 1077 harmonic 69.48 121.15   # CORR 12
    angle_coeff 1078 harmonic 67.95 119.89   # SOURCE3 36 0.2095
    angle_coeff 1079 harmonic 72.21 106.80   # SOURCE3 33 same_as_cc-cc-na
    angle_coeff 1080 harmonic 71.15 112.56   # SOURCE3 141 4.2871
    angle_coeff 1081 harmonic 67.53 121.69   # CORR 105
    angle_coeff 1082 harmonic 68.41 119.51   # CORR 228
    angle_coeff 1083 harmonic 68.53 121.96   # CORR 27
    angle_coeff 1084 harmonic 69.34 117.23   # CORR 211
    angle_coeff 1085 harmonic 80.79 115.36   # SOURCE3 84 3.2889
    angle_coeff 1086 harmonic 62.45 120.12   # CORR 31
    angle_coeff 1087 harmonic 68.22 124.90   # SOURCE4 5 2.3975
    angle_coeff 1088 harmonic 66.32 124.22   # CORR 48
    angle_coeff 1089 harmonic 67.80 121.51   # CORR 37
    angle_coeff 1090 harmonic 67.01 121.29   # CORR 37
    angle_coeff 1091 harmonic 68.17 119.03   # CORR 66
    angle_coeff 1092 harmonic 61.83 121.44   # CORR 38
    angle_coeff 1093 harmonic 46.77 118.19   # SOURCE4 8 0.2226
    angle_coeff 1094 harmonic 46.99 117.02   # SOURCE3 56 1.9713
    angle_coeff 1095 harmonic 59.35 122.97   # CORR 6
    angle_coeff 1096 harmonic 68.54 120.89   # CORR 2
    angle_coeff 1097 harmonic 68.11 116.32   # CORR 21
    angle_coeff 1098 harmonic 67.50 121.67   # CORR 47
    angle_coeff 1099 harmonic 66.19 123.47   # CORR 24
    angle_coeff 1100 harmonic 70.04 113.64   # CORR 53
    angle_coeff 1101 harmonic 67.83 119.39   # CORR 78
    angle_coeff 1102 harmonic 50.39 117.62   # SOURCE3 53 0.9721
    angle_coeff 1103 harmonic 50.22 119.66   # SOURCE3 294 2.4702
    angle_coeff 1104 harmonic 51.39 119.11   # SOURCE3 135 1.6946
    angle_coeff 1105 harmonic 50.00 120.03   # SOURCE3 16 2.3863
    angle_coeff 1106 harmonic 52.27 111.89   # SOURCE3 61 2.3500
    angle_coeff 1107 harmonic 42.95 117.75   # SOURCE3 40 3.1156
    angle_coeff 1108 harmonic 50.84 115.72   # CORR 20
    angle_coeff 1109 harmonic 49.76 122.10   # SOURCE3 16 1.4626
    angle_coeff 1110 harmonic 50.13 125.38   # SOURCE3 40 2.2157
    angle_coeff 1111 harmonic 49.29 123.70   # SOURCE3 6 0.3547
    angle_coeff 1112 harmonic 51.30 116.33   # SOURCE3 12 3.2919
    angle_coeff 1113 harmonic 42.19 122.00   # SOURCE3 6 0.7237
    angle_coeff 1114 harmonic 49.82 121.50   # SOURCE2 1 same_as_ha-cc-na
    angle_coeff 1115 harmonic 51.41 118.88   # SOURCE3 20 2.8923
    angle_coeff 1116 harmonic 50.73 116.54   # SOURCE3 5 1.4482
    angle_coeff 1117 harmonic 52.49 110.86   # SOURCE3 7 1.3846
    angle_coeff 1118 harmonic 53.59 121.76   # SOURCE3 84 2.2216
    angle_coeff 1119 harmonic 42.26 121.64   # SOURCE2 5 same_as_ha-cc-ss
    angle_coeff 1120 harmonic 74.78 112.02   # SOURCE3 17 2.2434
    angle_coeff 1121 harmonic 70.72 121.62   # CORR 231
    angle_coeff 1122 harmonic 72.43 116.98   # SOURCE4 46 1.4937
    angle_coeff 1123 harmonic 67.07 111.46   # SOURCE4 20 0.8600
    angle_coeff 1124 harmonic 73.35 115.96   # CORR 222
    angle_coeff 1125 harmonic 72.41 120.11   # SOURCE3 5 0.9313
    angle_coeff 1126 harmonic 72.93 121.54   # CORR 22
    angle_coeff 1127 harmonic 73.85 116.29   # CORR 209
    angle_coeff 1128 harmonic 66.51 114.51   # SOURCE3 8 0.3449
    angle_coeff 1129 harmonic 69.47 125.58   # SOURCE4 13 0.4672
    angle_coeff 1130 harmonic 72.33 116.85   # CORR 35
    angle_coeff 1131 harmonic 64.63 119.86   # SOURCE3 2 same_as_nc-cc-ss
    angle_coeff 1132 harmonic 72.93 115.96   # SOURCE3 1 same_as_nh-cc-nh
    angle_coeff 1133 harmonic 72.96 116.69   # CORR 25
    angle_coeff 1134 harmonic 64.19 121.94   # CORR 91
    angle_coeff 1135 harmonic 70.47 122.14   # CORR 59
    angle_coeff 1136 harmonic 71.12 122.98   # CORR 229
    angle_coeff 1137 harmonic 69.35 125.66   # CORR 64
    angle_coeff 1138 harmonic 72.22 116.87   # CORR 79
    angle_coeff 1139 harmonic 63.75 123.03   # CORR 45
    angle_coeff 1140 harmonic 75.54 111.61   # SOURCE4 6 1.1909
    angle_coeff 1141 harmonic 61.99 132.01   # SOURCE3 1 same_as_os-cc-ss
    angle_coeff 1142 harmonic 62.44 121.37   # CORR 22
    angle_coeff 1143 harmonic 61.51 121.70   # CORR 39
    angle_coeff 1144 harmonic 64.30 122.89   # SOURCE3 7 1.0449
    angle_coeff 1145 harmonic 65.16 123.08   # SOURCE3 6 2.1589
    angle_coeff 1146 harmonic 65.62 123.27   # CORR 72
    angle_coeff 1147 harmonic 65.73 123.08   # SOURCE3 12 0.6518
    angle_coeff 1148 harmonic 66.66 121.67   # CORR 21
    angle_coeff 1149 harmonic 57.87 119.51   # SOURCE4 24 1.4963
    angle_coeff 1150 harmonic 48.64 125.58   # SOURCE4 11 0.9381
    angle_coeff 1151 harmonic 49.56 121.10   # SOURCE3 46 2.4054
    angle_coeff 1152 harmonic 72.67 117.85   # SOURCE4 7 0.3180
    angle_coeff 1153 harmonic 70.34 128.70   # SOURCE3 1 0.0000
    angle_coeff 1154 harmonic 69.29 119.19   # SOURCE4 5 0.8452
    angle_coeff 1155 harmonic 69.73 118.32   # SOURCE3 7 1.0468
    angle_coeff 1156 harmonic 70.32 123.78   # SOURCE4 10 1.8182
    angle_coeff 1157 harmonic 77.91 118.24   # SOURCE3 1
    angle_coeff 1158 harmonic 77.59 118.76   # SOURCE3 8 2.3984
    angle_coeff 1159 harmonic 77.17 119.72   # SOURCE3 6 0.5213
    angle_coeff 1160 harmonic 77.39 122.13   # SOURCE3 5 3.1367
    angle_coeff 1161 harmonic 61.64 119.87   # SOURCE3 5 0.8557
    angle_coeff 1162 harmonic 61.96 120.35   # SOURCE3 5 0.5401
    angle_coeff 1163 harmonic 62.76 119.28   # CORR 178
    angle_coeff 1164 harmonic 63.42 118.22   # CORR 39
    angle_coeff 1165 harmonic 63.80 116.99   # CORR 244
    angle_coeff 1166 harmonic 64.52 122.11   # CORR 221
    angle_coeff 1167 harmonic 63.79 118.48   # SOURCE4 8 1.4756
    angle_coeff 1168 harmonic 66.92 122.70   # CORR 81
    angle_coeff 1169 harmonic 67.26 120.75   # SOURCE4 6 2.1938
    angle_coeff 1170 harmonic 65.76 119.90   # SOURCE4 5 0.9634
    angle_coeff 1171 harmonic 63.94 117.58   # CORR 112
    angle_coeff 1172 harmonic 64.21 118.06   # CORR 17
    angle_coeff 1173 harmonic 63.84 119.62   # SOURCE4 14 1.9171
    angle_coeff 1174 harmonic 64.07 127.39   # CORR 318
    angle_coeff 1175 harmonic 57.99 114.22   # SOURCE4 6 1.3164
    angle_coeff 1176 harmonic 46.71 116.86   # SOURCE4 74 0.9179
    angle_coeff 1177 harmonic 47.07 115.16   # CORR 345
    angle_coeff 1178 harmonic 68.51 120.72   # SOURCE3 1 0.0000
    angle_coeff 1179 harmonic 67.74 122.66   # CORR 22
    angle_coeff 1180 harmonic 67.87 115.51   # SOURCE4 93 0.9284
    angle_coeff 1181 harmonic 68.85 116.37   # CORR 11
    angle_coeff 1182 harmonic 68.60 115.58   # SOURCE4 8 1.0735
    angle_coeff 1183 harmonic 61.21 117.73   # SOURCE4 5 1.1596
    angle_coeff 1184 harmonic 65.82 120.42   # SOURCE3 13 1.8877
    angle_coeff 1185 harmonic 63.35 116.92   # CORR 188
    angle_coeff 1186 harmonic 62.59 122.38   # CORR 23
    angle_coeff 1187 harmonic 63.79 117.98   # SOURCE4 8 1.5129
    angle_coeff 1188 harmonic 63.28 130.36   # SOURCE4 5 2.3402
    angle_coeff 1189 harmonic 64.87 126.20   # CORR 88
    angle_coeff 1190 harmonic 63.81 126.07   # CORR 2
    angle_coeff 1191 harmonic 63.46 120.89   # SOURCE4 16 1.8719
    angle_coeff 1192 harmonic 64.26 126.41   # SOURCE3 2 5.7847
    angle_coeff 1193 harmonic 64.57 118.32   # SOURCE4 15 1.0595
    angle_coeff 1194 harmonic 47.52 115.40   # SOURCE4 29 0.8744
    angle_coeff 1195 harmonic 47.53 115.45   # CORR 113
    angle_coeff 1196 harmonic 57.67 115.40   # SOURCE4 6 1.0958
    angle_coeff 1197 harmonic 68.94 121.28   # CORR 69
    angle_coeff 1198 harmonic 67.31 119.17   # SOURCE4 8 2.1378
    angle_coeff 1199 harmonic 72.72 88.22   # SOURCE4 19 0.3234
    angle_coeff 1200 harmonic 64.81 124.49   # CORR 12
    angle_coeff 1201 harmonic 49.97 115.48   # CORR 39
    angle_coeff 1202 harmonic 64.55 118.74   # SOURCE3 1 0.0000
    angle_coeff 1203 harmonic 65.46 124.19   # CORR 341
    angle_coeff 1204 harmonic 57.29 117.93   # SOURCE4 12 0.2639
    angle_coeff 1205 harmonic 47.06 117.97   # CORR 19
    angle_coeff 1206 harmonic 47.50 115.90   # SOURCE3 12 0.4670
    angle_coeff 1207 harmonic 66.79 127.15   # CORR 4
    angle_coeff 1208 harmonic 69.57 119.33   # CORR 13
    angle_coeff 1209 harmonic 69.29 116.89   # SOURCE4 11 2.0380
    angle_coeff 1210 harmonic 66.10 123.79   # CORR 41
    angle_coeff 1211 harmonic 60.53 137.74   # SOURCE4 13 0.3952
    angle_coeff 1212 harmonic 49.02 123.76   # SOURCE4 5 1.0909
    angle_coeff 1213 harmonic 50.21 118.12   # CORR 655
    angle_coeff 1214 harmonic 72.03 120.03   # SOURCE4 6 1.9451
    angle_coeff 1215 harmonic 72.60 108.25   # CORR 64
    angle_coeff 1216 harmonic 69.48 121.52   # SOURCE4 12 2.0106
    angle_coeff 1217 harmonic 70.92 121.78   # CORR 24
    angle_coeff 1218 harmonic 65.58 118.26   # CORR 7
    angle_coeff 1219 harmonic 47.93 116.54   # CORR 18
    angle_coeff 1220 harmonic 69.49 119.50   # CORR 2
    angle_coeff 1221 harmonic 69.59 121.43   # SOURCE4 6 0.8382
    angle_coeff 1222 harmonic 46.59 117.26   # SOURCE3 11 2.7158
    angle_coeff 1223 harmonic 66.20 118.62   # CORR 137
    angle_coeff 1224 harmonic 67.79 115.62   # CORR 19
    angle_coeff 1225 harmonic 68.34 117.92   # SOURCE4 5 1.4580
    angle_coeff 1226 harmonic 69.09 113.78   # SOURCE4 21 1.8258
    angle_coeff 1227 harmonic 52.58 116.36   # SOURCE4 7 0.2182
    angle_coeff 1228 harmonic 52.36 121.58   # CORR 116
    angle_coeff 1229 harmonic 49.72 115.81   # SOURCE4 7 1.9836
    angle_coeff 1230 harmonic 52.70 115.96   # CORR 4
    angle_coeff 1231 harmonic 52.85 119.51   # SOURCE3 2 0.4623
    angle_coeff 1232 harmonic 49.16 118.59   # SOURCE3 5 1.1113
    angle_coeff 1233 harmonic 50.62 114.99   # CORR 2
    angle_coeff 1234 harmonic 51.40 120.11   # SOURCE3 1
    angle_coeff 1235 harmonic 51.44 119.33   # SOURCE3 6 0.8966
    angle_coeff 1236 harmonic 51.66 117.90   # SOURCE3 6 0.1809
    angle_coeff 1237 harmonic 52.32 118.72   # SOURCE3 3 0.3064
    angle_coeff 1238 harmonic 41.85 115.45   # SOURCE3 3 0.6640
    angle_coeff 1239 harmonic 42.34 114.86   # SOURCE3 3 0.4717
    angle_coeff 1240 harmonic 71.56 124.96   # CORR 92
    angle_coeff 1241 harmonic 74.58 118.13   # SOURCE4 6 0.1367
    angle_coeff 1242 harmonic 64.40 117.23   # SOURCE4 6 2.0518
    angle_coeff 1243 harmonic 68.07 123.87   # SOURCE3 1 0.0000
    angle_coeff 1244 harmonic 71.89 112.91   # SOURCE4 12 1.1263
    angle_coeff 1245 harmonic 73.31 118.13   # SOURCE4 6 0.5842
    angle_coeff 1246 harmonic 92.40 129.79   # SOURCE3 1 0.0000
    angle_coeff 1247 harmonic 102.62 108.06   # SOURCE3 1 0.0000
    angle_coeff 1248 harmonic 60.61 120.32   # SOURCE3 1 0.0000
    angle_coeff 1249 harmonic 61.21 119.97   # SOURCE3 1 0.0000
    angle_coeff 1250 harmonic 64.30 122.89   # SOURCE3 7 same_as_c2-ce-c3
    angle_coeff 1251 harmonic 65.16 123.08   # SOURCE3 6 same_as_c2-ce-ca
    angle_coeff 1252 harmonic 65.62 123.27   # CORR 72
    angle_coeff 1253 harmonic 65.73 123.08   # SOURCE3 12 same_as_c2-ce-ce
    angle_coeff 1254 harmonic 66.66 121.67   # CORR 21
    angle_coeff 1255 harmonic 49.56 121.10   # SOURCE3 46 same_as_c2-ce-ha
    angle_coeff 1256 harmonic 70.34 128.70   # SOURCE3 1 same_as_c2-ce-n2
    angle_coeff 1257 harmonic 69.73 118.32   # SOURCE3 7 same_as_c2-ce-ne
    angle_coeff 1258 harmonic 77.91 118.24   # SOURCE3 1 same_as_c2-ce-p2
    angle_coeff 1259 harmonic 77.59 118.76   # SOURCE3 8 same_as_c2-ce-pe
    angle_coeff 1260 harmonic 77.17 119.72   # SOURCE3 6 same_as_c2-ce-px
    angle_coeff 1261 harmonic 77.39 122.13   # SOURCE3 5 same_as_c2-ce-py
    angle_coeff 1262 harmonic 61.64 119.87   # SOURCE3 5 same_as_c2-ce-sx
    angle_coeff 1263 harmonic 61.96 120.35   # SOURCE3 5 same_as_c2-ce-sy
    angle_coeff 1264 harmonic 62.76 119.28   # CORR 178
    angle_coeff 1265 harmonic 63.42 118.22   # CORR 39
    angle_coeff 1266 harmonic 64.52 122.11   # CORR 221
    angle_coeff 1267 harmonic 63.80 116.99   # CORR 244
    angle_coeff 1268 harmonic 66.92 122.70   # CORR 81
    angle_coeff 1269 harmonic 63.94 117.58   # CORR 112
    angle_coeff 1270 harmonic 62.70 130.80   # SOURCE4 12 1.2696
    angle_coeff 1271 harmonic 64.21 118.06   # CORR 17
    angle_coeff 1272 harmonic 64.07 127.39   # CORR 318
    angle_coeff 1273 harmonic 47.07 115.16   # CORR 345
    angle_coeff 1274 harmonic 68.51 120.72   # SOURCE3 1 same_as_ca-ce-n2
    angle_coeff 1275 harmonic 67.74 122.66   # CORR 22
    angle_coeff 1276 harmonic 68.85 116.37   # CORR 11
    angle_coeff 1277 harmonic 65.82 120.42   # SOURCE3 13 same_as_c-ce-c2
    angle_coeff 1278 harmonic 63.35 116.92   # CORR 188
    angle_coeff 1279 harmonic 62.59 122.38   # CORR 23
    angle_coeff 1280 harmonic 63.81 126.07   # CORR 2
    angle_coeff 1281 harmonic 64.81 124.49   # CORR 12
    angle_coeff 1282 harmonic 64.25 117.76   # SOURCE4 10 1.2451
    angle_coeff 1283 harmonic 64.26 126.41   # SOURCE3 2 same_as_c-ce-cf
    angle_coeff 1284 harmonic 49.97 115.48   # CORR 39
    angle_coeff 1285 harmonic 64.87 126.20   # CORR 88
    angle_coeff 1286 harmonic 47.53 115.45   # CORR 113
    angle_coeff 1287 harmonic 68.94 121.28   # CORR 69
    angle_coeff 1288 harmonic 65.46 124.19   # CORR 341
    angle_coeff 1289 harmonic 66.10 123.79   # CORR 41
    angle_coeff 1290 harmonic 50.21 118.12   # CORR 655
    angle_coeff 1291 harmonic 72.60 108.25   # CORR 64
    angle_coeff 1292 harmonic 70.92 121.78   # CORR 24
    angle_coeff 1293 harmonic 64.55 118.74   # SOURCE3 1 same_as_ce-ce-ce
    angle_coeff 1294 harmonic 47.06 117.97   # CORR 19
    angle_coeff 1295 harmonic 47.50 115.90   # SOURCE3 12 0.4670
    angle_coeff 1296 harmonic 66.79 127.15   # CORR 4
    angle_coeff 1297 harmonic 69.57 119.33   # CORR 13
    angle_coeff 1298 harmonic 46.59 117.26   # SOURCE3 11 2.7158
    angle_coeff 1299 harmonic 65.58 118.26   # CORR 7
    angle_coeff 1300 harmonic 47.93 116.54   # CORR 18
    angle_coeff 1301 harmonic 69.49 119.50   # CORR 2
    angle_coeff 1302 harmonic 70.16 114.88   # SOURCE4 5 1.3647
    angle_coeff 1303 harmonic 66.20 118.62   # CORR 137
    angle_coeff 1304 harmonic 67.79 115.62   # CORR 19
    angle_coeff 1305 harmonic 72.22 107.35   # SOURCE2 2 0.2500
    angle_coeff 1306 harmonic 52.36 121.58   # CORR 116
    angle_coeff 1307 harmonic 52.29 120.21   # SOURCE4 6 0.8104
    angle_coeff 1308 harmonic 52.70 115.96   # CORR 4
    angle_coeff 1309 harmonic 52.85 119.51   # SOURCE3 2 same_as_ha-ce-n2
    angle_coeff 1310 harmonic 49.16 118.59   # SOURCE3 5 same_as_ha-ce-ne
    angle_coeff 1311 harmonic 50.62 114.99   # CORR 2
    angle_coeff 1312 harmonic 51.40 120.11   # SOURCE3 1 same_as_ha-ce-p2
    angle_coeff 1313 harmonic 51.44 119.33   # SOURCE3 6 same_as_ha-ce-pe
    angle_coeff 1314 harmonic 51.66 117.90   # SOURCE3 6 same_as_ha-ce-px
    angle_coeff 1315 harmonic 52.32 118.72   # SOURCE3 3 same_as_ha-ce-py
    angle_coeff 1316 harmonic 41.85 115.45   # SOURCE3 3 same_as_ha-ce-sx
    angle_coeff 1317 harmonic 42.34 114.86   # SOURCE3 3 same_as_ha-ce-sy
    angle_coeff 1318 harmonic 71.56 124.96   # CORR 92
    angle_coeff 1319 harmonic 68.07 123.87   # SOURCE3 1 same_as_ne-ce-ne
    angle_coeff 1320 harmonic 73.21 123.44   # SOURCE3 1
    angle_coeff 1321 harmonic 92.40 129.79   # SOURCE3 1 same_as_pe-ce-pe
    angle_coeff 1322 harmonic 102.62 108.06   # SOURCE3 1 same_as_py-ce-py
    angle_coeff 1323 harmonic 63.41 124.00   # SOURCE2 1 0.0000
    angle_coeff 1324 harmonic 60.61 120.32   # SOURCE3 1 same_as_sx-ce-sx
    angle_coeff 1325 harmonic 61.21 119.97   # SOURCE3 1 same_as_sy-ce-sy
    angle_coeff 1326 harmonic 56.52 179.52   # CORR 19
    angle_coeff 1327 harmonic 56.97 178.60   # SOURCE4 6 0.3822
    angle_coeff 1328 harmonic 56.95 178.05   # CORR 7
    angle_coeff 1329 harmonic 58.17 179.70   # CORR 18
    angle_coeff 1330 harmonic 62.73 170.02   # SOURCE3 4 1.1724
    angle_coeff 1331 harmonic 71.80 173.29   # SOURCE3 11 4.9305
    angle_coeff 1332 harmonic 56.91 179.64   # CORR 13
    angle_coeff 1333 harmonic 58.93 179.43   # CORR 103
    angle_coeff 1334 harmonic 56.19 179.14   # SOURCE3 2 0.0000
    angle_coeff 1335 harmonic 59.43 178.54   # CORR 50
    angle_coeff 1336 harmonic 57.39 177.94   # CORR 17
    angle_coeff 1337 harmonic 59.39 177.97   # CORR 67
    angle_coeff 1338 harmonic 64.98 174.44   # CORR 17
    angle_coeff 1339 harmonic 54.28 120.93   # SOURCE4 129 0.5769
    angle_coeff 1340 harmonic 52.39 112.19   # SOURCE4 33 0.4220
    angle_coeff 1341 harmonic 53.89 123.26   # SOURCE4 38 0.4806
    angle_coeff 1342 harmonic 37.86 115.61   # SOURCE3 4 0.0458
    angle_coeff 1343 harmonic 36.71 110.58   # SOURCE3 1 0.0000
    angle_coeff 1344 harmonic 52.40 112.37   # SOURCE3 4 0.6424
    angle_coeff 1345 harmonic 54.27 121.94   # SOURCE3 51 2.3235
    angle_coeff 1346 harmonic 53.97 111.82   # SOURCE3 4 1.9375
    angle_coeff 1347 harmonic 53.24 110.34   # SOURCE3 8 1.9344
    angle_coeff 1348 harmonic 44.27 119.56   # SOURCE3 3 0.7586
    angle_coeff 1349 harmonic 56.52 179.52   # CORR 19
    angle_coeff 1350 harmonic 56.95 178.05   # CORR 7
    angle_coeff 1351 harmonic 58.17 179.70   # CORR 18
    angle_coeff 1352 harmonic 62.73 170.02   # SOURCE3 4 same_as_c1-cg-ne
    angle_coeff 1353 harmonic 71.80 173.29   # SOURCE3 11 same_as_c1-cg-pe
    angle_coeff 1354 harmonic 56.91 179.64   # CORR 13
    angle_coeff 1355 harmonic 58.93 179.43   # CORR 103
    angle_coeff 1356 harmonic 56.19 179.14   # SOURCE3 2 same_as_c-cg-c1
    angle_coeff 1357 harmonic 59.43 178.54   # CORR 50
    angle_coeff 1358 harmonic 57.39 177.94   # CORR 17
    angle_coeff 1359 harmonic 59.39 177.97   # CORR 67
    angle_coeff 1360 harmonic 58.68 179.67   # SOURCE4 7 0.1439
    angle_coeff 1361 harmonic 64.98 174.44   # CORR 17
    angle_coeff 1362 harmonic 59.79 116.45   # SOURCE3 1 0.0000
    angle_coeff 1363 harmonic 55.51 122.02   # SOURCE3 4 1.2961
    angle_coeff 1364 harmonic 0.00 87.50   # SOURCE2 1 estimated_force_constant
    angle_coeff 1365 harmonic 71.83 110.31   # SOURCE3 1
    angle_coeff 1366 harmonic 73.02 122.50   # SOURCE3 1
    angle_coeff 1367 harmonic 64.71 114.64   # SOURCE3 1 0.0000
    angle_coeff 1368 harmonic 69.58 118.83   # SOURCE3 4 3.8516
    angle_coeff 1369 harmonic 73.92 122.97   # CORR 121
    angle_coeff 1370 harmonic 73.92 122.97   # CORR 121
    angle_coeff 1371 harmonic 73.21 110.31   # CORR 2
    angle_coeff 1372 harmonic 72.96 125.91   # CORR 42
    angle_coeff 1373 harmonic 73.21 110.31   # CORR 2
    angle_coeff 1374 harmonic 72.96 125.91   # CORR 42
    angle_coeff 1375 harmonic 74.80 113.38   # SOURCE4 635 1.4358
    angle_coeff 1376 harmonic 72.35 117.05   # CORR 77
    angle_coeff 1377 harmonic 72.35 117.05   # CORR 77
    angle_coeff 1378 harmonic 74.43 110.37   # SOURCE4 10 1.7492
    angle_coeff 1379 harmonic 75.83 122.03   # SOURCE3 221 2.3565
    angle_coeff 1380 harmonic 76.22 113.63   # SOURCE4 5 1.1209
    angle_coeff 1381 harmonic 66.54 109.28   # SOURCE3 1
    angle_coeff 1382 harmonic 67.95 125.36   # SOURCE3 1
    angle_coeff 1383 harmonic 76.68 109.28   # SOURCE4 318 0.8749
    angle_coeff 1384 harmonic 65.73 123.88   # SOURCE3 5 1.2935
    angle_coeff 1385 harmonic 65.61 112.61   # SOURCE4 8 1.2601
    angle_coeff 1386 harmonic 66.85 110.42   # SOURCE4 59 1.5507
    angle_coeff 1387 harmonic 78.91 110.56   # SOURCE3 2 0.5498
    angle_coeff 1388 harmonic 66.64 123.44   # SOURCE3 1 0.0000
    angle_coeff 1389 harmonic 78.17 130.38   # SOURCE4 429 1.0315
    angle_coeff 1390 harmonic 77.38 122.88   # SOURCE3 33 2.1896
    angle_coeff 1391 harmonic 75.93 123.33   # SOURCE4 1708 1.0632
    angle_coeff 1392 harmonic 75.65 123.10   # SOURCE3 1
    angle_coeff 1393 harmonic 77.08 120.79   # SOURCE3 1
    angle_coeff 1394 harmonic 77.01 121.20   # SOURCE4 8 1.2117
    angle_coeff 1395 harmonic 75.23 123.02   # SOURCE3 3 0.1404
    angle_coeff 1396 harmonic 75.23 123.02   # SOURCE3 3 same_as_o-c-pe
    angle_coeff 1397 harmonic 76.75 119.10   # SOURCE3 1 0.0000
    angle_coeff 1398 harmonic 77.45 121.71   # SOURCE4 5 0.3133
    angle_coeff 1399 harmonic 61.24 121.15   # SOURCE3 1
    angle_coeff 1400 harmonic 61.67 119.45   # SOURCE3 1
    angle_coeff 1401 harmonic 68.21 120.44   # SOURCE3 2 0.0000
    angle_coeff 1402 harmonic 64.19 121.41   # SOURCE3 4 1.4052
    angle_coeff 1403 harmonic 76.45 111.38   # SOURCE4 12 0.8309
    angle_coeff 1404 harmonic 64.62 122.29   # SOURCE3 7 1.9240
    angle_coeff 1405 harmonic 65.82 125.03   # SOURCE4 18 0.9978
    angle_coeff 1406 harmonic 66.30 113.63   # SOURCE4 5 0.7367
    angle_coeff 1407 harmonic 60.75 121.15   # SOURCE3 5 3.6452
    angle_coeff 1408 harmonic 61.88 119.32   # SOURCE3 5 2.4495
    angle_coeff 1409 harmonic 94.44 113.75   # SOURCE3 1
    angle_coeff 1410 harmonic 93.55 118.04   # SOURCE3 1 0.0000
    angle_coeff 1411 harmonic 107.54 90.08   # SOURCE3 1 0.0000
    angle_coeff 1412 harmonic 91.43 123.76   # SOURCE3 1
    angle_coeff 1413 harmonic 67.11 118.33   # CORR 526
    angle_coeff 1414 harmonic 64.09 121.13   # CORR 991
    angle_coeff 1415 harmonic 68.78 119.43   # SOURCE4 21 0.6591
    angle_coeff 1416 harmonic 69.19 121.65   # SOURCE4 63 0.6564
    angle_coeff 1417 harmonic 72.20 90.00   # SOURCE3 4 0.0000
    angle_coeff 1418 harmonic 62.64 124.47   # CORR 10
    angle_coeff 1419 harmonic 68.05 116.60   # SOURCE4 88 1.1887
    angle_coeff 1420 harmonic 93.89 113.77   # SOURCE3 1 0.0000
    angle_coeff 1421 harmonic 93.89 113.77   # SOURCE3 1 same_as_pe-c-pe
    angle_coeff 1422 harmonic 71.31 125.72   # SOURCE4 5 0.6674
    angle_coeff 1423 harmonic 92.13 123.80   # SOURCE3 1 0.0000
    angle_coeff 1424 harmonic 67.11 118.33   # CORR 526
    angle_coeff 1425 harmonic 64.09 121.13   # CORR 991
    angle_coeff 1426 harmonic 69.19 121.65   # SOURCE4 63 same as ca-cp-nb
    angle_coeff 1427 harmonic 62.64 124.47   # CORR 10
    angle_coeff 1428 harmonic 72.20 90.00   # SOURCE3 4 0.0000
    angle_coeff 1429 harmonic 68.05 116.60   # SOURCE4 88 same as cp-cp-nb
    angle_coeff 1430 harmonic 61.25 108.81   # SOURCE3 1
    angle_coeff 1431 harmonic 59.39 115.75   # SOURCE3 1
    angle_coeff 1432 harmonic 62.47 115.33   # SOURCE3 1 0.0000
    angle_coeff 1433 harmonic 65.01 120.40   # SOURCE3 2 1.2766
    angle_coeff 1434 harmonic 62.29 122.76   # SOURCE4 11 1.5734
    angle_coeff 1435 harmonic 61.88 125.90   # SOURCE3 1 0.0000
    angle_coeff 1436 harmonic 63.79 113.00   # SOURCE3 1 0.0000
    angle_coeff 1437 harmonic 60.77 108.80   # SOURCE3 1 0.0000
    angle_coeff 1438 harmonic 59.54 115.78   # SOURCE3 1 0.0000
    angle_coeff 1439 harmonic 58.56 148.21   # SOURCE4 6 1.8305
    angle_coeff 1440 harmonic 94.97 62.60   # SOURCE2 1 0.0000
    angle_coeff 1441 harmonic 100.97 50.80   # SOURCE2 1 0.0000
    angle_coeff 1442 harmonic 46.11 147.73   # SOURCE2 3 2.0950
    angle_coeff 1443 harmonic 73.28 94.17   # SOURCE3 2 0.0000
    angle_coeff 1444 harmonic 47.30 133.70   # SOURCE3 2 0.0000
    angle_coeff 1445 harmonic 84.66 63.90   # SOURCE2 1 0.0000
    angle_coeff 1446 harmonic 42.89 132.14   # SOURCE3 2 0.0000
    angle_coeff 1447 harmonic 63.10 120.66   # SOURCE4 9 0.9067
    angle_coeff 1448 harmonic 62.33 120.54   # SOURCE4 51 2.2377
    angle_coeff 1449 harmonic 46.63 115.78   # SOURCE4 8 0.2332
    angle_coeff 1450 harmonic 46.77 115.10   # SOURCE4 12 0.7463
    angle_coeff 1451 harmonic 67.14 116.17   # SOURCE4 14 1.2782
    angle_coeff 1452 harmonic 63.00 114.48   # SOURCE4 46 1.9627
    angle_coeff 1453 harmonic 61.82 120.06   # SOURCE4 448 2.1467
    angle_coeff 1454 harmonic 45.87 115.42   # SOURCE4 89 1.1096
    angle_coeff 1455 harmonic 46.12 114.16   # SOURCE4 85 1.1118
    angle_coeff 1456 harmonic 64.31 118.50   # SOURCE4 17 2.4897
    angle_coeff 1457 harmonic 66.57 115.50   # SOURCE4 161 1.3016
    angle_coeff 1458 harmonic 61.86 122.18   # SOURCE4 65 1.6898
    angle_coeff 1459 harmonic 46.81 114.57   # SOURCE4 7 0.6498
    angle_coeff 1460 harmonic 47.05 113.41   # SOURCE4 18 0.7843
    angle_coeff 1461 harmonic 69.25 112.93   # SOURCE3 1 0.0000
    angle_coeff 1462 harmonic 66.42 118.50   # SOURCE4 6 0.7514
    angle_coeff 1463 harmonic 62.91 116.93   # SOURCE4 18 1.8253
    angle_coeff 1464 harmonic 62.90 119.31   # CORR 39
    angle_coeff 1465 harmonic 47.37 113.84   # SOURCE4 15 0.6682
    angle_coeff 1466 harmonic 62.96 117.96   # SOURCE4 147 1.8483
    angle_coeff 1467 harmonic 62.90 119.31   # CORR 39
    angle_coeff 1468 harmonic 46.27 117.25   # SOURCE4 24 0.7935
    angle_coeff 1469 harmonic 46.42 116.53   # SOURCE4 36 1.2830
    angle_coeff 1470 harmonic 54.42 114.20   # SOURCE2 1 0.0000
    angle_coeff 1471 harmonic 56.53 120.10   # SOURCE4 15 0.5917
    angle_coeff 1472 harmonic 40.37 111.43   # SOURCE3 1 0.0000
    angle_coeff 1473 harmonic 39.60 115.80   # SOURCE2 1 0.0000
    angle_coeff 1474 harmonic 67.25 115.59   # SOURCE4 36 0.8227
    angle_coeff 1475 harmonic 91.53 54.60   # SOURCE2 1 0.0000
    angle_coeff 1476 harmonic 88.72 58.50   # SOURCE4 7 0.1333
    angle_coeff 1477 harmonic 45.49 118.09   # SOURCE4 7 1.0126
    angle_coeff 1478 harmonic 87.90 60.00   # SOURCE4 681 0.6259
    angle_coeff 1479 harmonic 67.54 100.53   # SOURCE3 4 0.0000
    angle_coeff 1480 harmonic 64.53 117.93   # SOURCE4 7 1.1613
    angle_coeff 1481 harmonic 45.45 119.66   # SOURCE3 12 0.4529
    angle_coeff 1482 harmonic 45.79 117.92   # SOURCE3 92 1.1927
    angle_coeff 1483 harmonic 45.47 119.62   # SOURCE4 9 0.1118
    angle_coeff 1484 harmonic 91.17 59.59   # SOURCE4 154 0.3104
    angle_coeff 1485 harmonic 62.94 125.85   # SOURCE4 16 2.0385
    angle_coeff 1486 harmonic 92.03 59.15   # SOURCE4 116 0.6758
    angle_coeff 1487 harmonic 93.61 59.07   # SOURCE4 306 0.5253
    angle_coeff 1488 harmonic 43.98 125.43   # SOURCE3 2 0.0000
    angle_coeff 1489 harmonic 70.61 106.90   # SOURCE2 2 1.4000
    angle_coeff 1490 harmonic 50.35 111.68   # SOURCE3 1 0.0000
    angle_coeff 1491 harmonic 50.22 112.30   # SOURCE2 1 0.0000
    angle_coeff 1492 harmonic 38.38 115.45   # SOURCE4 230 0.3302
    angle_coeff 1493 harmonic 47.97 116.43   # SOURCE4 173 1.4531
    angle_coeff 1494 harmonic 49.06 115.42   # SOURCE4 12 1.0443
    angle_coeff 1495 harmonic 49.96 108.67   # SOURCE4 8 1.6134
    angle_coeff 1496 harmonic 48.50 116.32   # SOURCE4 151 1.0310
    angle_coeff 1497 harmonic 50.01 115.17   # SOURCE3 8 0.0226
    angle_coeff 1498 harmonic 37.87 119.43   # SOURCE3 1 0.0000
    angle_coeff 1499 harmonic 47.55 117.18   # SOURCE3 4 0.0000
    angle_coeff 1500 harmonic 38.58 114.47   # SOURCE3 19 0.3295
    angle_coeff 1501 harmonic 50.25 114.10   # SOURCE2 1 0.0000
    angle_coeff 1502 harmonic 49.89 114.47   # SOURCE4 8 0.1059
    angle_coeff 1503 harmonic 102.06 50.16   # SOURCE3 1 0.0000
    angle_coeff 1504 harmonic 70.16 119.75   # SOURCE3 2 0.0000
    angle_coeff 1505 harmonic 92.71 65.98   # SOURCE3 1 0.0000
    angle_coeff 1506 harmonic 76.67 107.85   # SOURCE3 1 0.0000
    angle_coeff 1507 harmonic 71.64 118.12   # SOURCE3 4 1.3581
    angle_coeff 1508 harmonic 70.90 115.84   # SOURCE4 7 2.0760
    angle_coeff 1509 harmonic 66.57 100.40   # SOURCE2 1 0.0000
    angle_coeff 1510 harmonic 63.19 111.58   # SOURCE4 15 1.0060
    angle_coeff 1511 harmonic 60.76 118.70   # SOURCE4 293 1.8510
    angle_coeff 1512 harmonic 46.16 111.77   # SOURCE4 119 0.4412
    angle_coeff 1513 harmonic 46.21 111.55   # SOURCE3 5 0.6276
    angle_coeff 1514 harmonic 65.28 112.92   # SOURCE3 2 0.0000
    angle_coeff 1515 harmonic 68.32 104.05   # SOURCE4 122 0.5745
    angle_coeff 1516 harmonic 66.99 111.96   # SOURCE4 11 1.0668
    angle_coeff 1517 harmonic 61.78 116.72   # SOURCE4 129 0.5236
    angle_coeff 1518 harmonic 60.58 121.17   # CORR 19
    angle_coeff 1519 harmonic 71.81 84.99   # SOURCE4 263 0.6952
    angle_coeff 1520 harmonic 60.58 121.17   # CORR 19
    angle_coeff 1521 harmonic 45.50 117.25   # SOURCE4 17 0.5351
    angle_coeff 1522 harmonic 74.69 88.02   # SOURCE4 14 0.1416
    angle_coeff 1523 harmonic 58.47 121.33   # SOURCE4 13 0.1599
    angle_coeff 1524 harmonic 45.89 113.10   # SOURCE4 71 0.7655
    angle_coeff 1525 harmonic 45.75 113.85   # SOURCE3 8 0.2067
    angle_coeff 1526 harmonic 57.58 112.00   # SOURCE3 2 0.0000
    angle_coeff 1527 harmonic 40.98 106.59   # SOURCE3 1 0.0000
    angle_coeff 1528 harmonic 39.62 114.00   # SOURCE2 1 0.0000
    angle_coeff 1529 harmonic 64.32 117.39   # SOURCE4 70 1.0742
    angle_coeff 1530 harmonic 66.27 114.42   # SOURCE4 6 1.2052
    angle_coeff 1531 harmonic 71.46 86.67   # SOURCE4 6 1.1600
    angle_coeff 1532 harmonic 46.06 114.47   # SOURCE4 7 0.4307
    angle_coeff 1533 harmonic 66.08 101.23   # SOURCE3 4 0.0000
    angle_coeff 1534 harmonic 45.25 118.30   # SOURCE2 3 5.7799
    angle_coeff 1535 harmonic 70.16 87.61   # SOURCE3 32 1.5407
    angle_coeff 1536 harmonic 64.55 112.87   # SOURCE4 13 1.6772
    angle_coeff 1537 harmonic 44.87 114.84   # SOURCE3 20 2.5651
    angle_coeff 1538 harmonic 44.51 116.77   # SOURCE4 83 0.8683
    angle_coeff 1539 harmonic 44.82 115.14   # SOURCE3 114 0.8364
    angle_coeff 1540 harmonic 73.47 87.58   # SOURCE3 4 0.6135
    angle_coeff 1541 harmonic 65.22 112.13   # SOURCE3 31 2.0700
    angle_coeff 1542 harmonic 63.12 119.70   # SOURCE4 9 0.3333
    angle_coeff 1543 harmonic 66.00 114.19   # SOURCE3 4 0.0000
    angle_coeff 1544 harmonic 66.41 111.77   # SOURCE4 18 2.1334
    angle_coeff 1545 harmonic 58.93 117.46   # SOURCE4 7 1.2423
    angle_coeff 1546 harmonic 58.83 118.18   # SOURCE4 55 0.9860
    angle_coeff 1547 harmonic 39.01 109.72   # SOURCE3 6 0.8087
    angle_coeff 1548 harmonic 48.21 113.36   # SOURCE3 6 1.4509
    angle_coeff 1549 harmonic 49.10 111.18   # SOURCE4 141 0.5848
    angle_coeff 1550 harmonic 50.89 111.49   # SOURCE3 2 0.0000
    angle_coeff 1551 harmonic 50.53 110.94   # SOURCE3 8 0.6522
    angle_coeff 1552 harmonic 41.05 112.57   # SOURCE4 5 1.2943
    angle_coeff 1553 harmonic 48.42 114.44   # SOURCE4 88 0.7114
    angle_coeff 1554 harmonic 50.97 109.19   # SOURCE4 6 0.4162
    angle_coeff 1555 harmonic 42.11 106.85   # SOURCE4 6 0.3975
    angle_coeff 1556 harmonic 41.64 109.73   # SOURCE4 92 0.7424
    angle_coeff 1557 harmonic 39.24 109.04   # SOURCE3 28 0.5962
    angle_coeff 1558 harmonic 71.62 107.50   # SOURCE4 9 2.3773
    angle_coeff 1559 harmonic 65.24 103.45   # SOURCE4 6 0.7197
    angle_coeff 1560 harmonic 64.81 105.12   # SOURCE4 69 0.3987
    angle_coeff 1561 harmonic 72.97 120.17   # SOURCE4 26 0.3964
angle_coeff 1562 harmonic 51.10 180.00   # HF/6-31G* 1
angle_coeff 1563 harmonic 64.91 179.92   # HF/6-31G* 1
angle_coeff 1564 harmonic 60.25 177.73   # HF/6-31G* 1
angle_coeff 1565 harmonic 54.83 180.00   # HF/6-31G* 1
angle_coeff 1566 harmonic 56.97 179.99   # HF/6-31G* 1
angle_coeff 1567 harmonic 50.10 179.95   # HF/6-31G* 1
angle_coeff 1568 harmonic 55.86 179.96   # HF/6-31G* 1
angle_coeff 1569 harmonic 45.62 179.98   # HF/6-31G* 1
angle_coeff 1570 harmonic 46.23 179.95   # HF/6-31G* 1
angle_coeff 1571 harmonic 66.89 180.00   # HF/6-31G* 1
angle_coeff 1572 harmonic 65.70 171.56   # HF/6-31G* 1
angle_coeff 1573 harmonic 60.69 175.59   # HF/6-31G* 1
angle_coeff 1574 harmonic 59.68 179.69   # HF/6-31G* 1
angle_coeff 1575 harmonic 59.95 180.00   # HF/6-31G* 1
angle_coeff 1576 harmonic 60.88 176.35   # HF/6-31G* 1
angle_coeff 1577 harmonic 62.62 179.95   # HF/6-31G* 1
angle_coeff 1578 harmonic 62.88 174.31   # HF/6-31G* 1
angle_coeff 1579 harmonic 62.15 176.61   # HF/6-31G* 1
angle_coeff 1580 harmonic 68.11 172.83   # HF/6-31G* 1
angle_coeff 1581 harmonic 68.68 173.51   # HF/6-31G* 1
angle_coeff 1582 harmonic 67.87 173.64   # HF/6-31G* 1
angle_coeff 1583 harmonic 71.49 177.28   # HF/6-31G* 1
angle_coeff 1584 harmonic 60.33 178.11   # HF/6-31G* 1
angle_coeff 1585 harmonic 55.20 169.60   # HF/6-31G* 1
angle_coeff 1586 harmonic 53.31 179.99   # HF/6-31G* 1
angle_coeff 1587 harmonic 61.81 175.92   # HF/6-31G* 1
angle_coeff 1588 harmonic 55.72 174.25   # HF/6-31G* 1
angle_coeff 1589 harmonic 55.44 176.06   # HF/6-31G* 1
angle_coeff 1590 harmonic 61.58 180.00   # HF/6-31G* 1
    angle_coeff 1591 harmonic 73.09 116.94   # SOURCE3 2 0.0060
    angle_coeff 1592 harmonic 64.71 118.00   # SOURCE3 2 0.0121
angle_coeff 1593 harmonic 56.30 180.00   # HF/6-31G* 1
angle_coeff 1594 harmonic 58.54 180.00   # HF/6-31G* 1
    angle_coeff 1595 harmonic 71.28 122.40   # CORR 2
    angle_coeff 1596 harmonic 64.84 117.34   # CORR 2
    angle_coeff 1597 harmonic 71.28 122.40   # CORR 2
    angle_coeff 1598 harmonic 64.84 117.34   # CORR 2
angle_coeff 1599 harmonic 51.37 179.94   # HF/6-31G* 1
angle_coeff 1600 harmonic 57.39 179.93   # HF/6-31G* 1
angle_coeff 1601 harmonic 47.14 179.91   # HF/6-31G* 1
angle_coeff 1602 harmonic 47.26 179.94   # HF/6-31G* 1
angle_coeff 1603 harmonic 68.97 179.97   # HF/6-31G* 1
angle_coeff 1604 harmonic 67.65 171.57   # HF/6-31G* 1
angle_coeff 1605 harmonic 62.49 175.09   # HF/6-31G* 1
angle_coeff 1606 harmonic 61.31 179.91   # HF/6-31G* 1
angle_coeff 1607 harmonic 61.63 179.97   # HF/6-31G* 1
angle_coeff 1608 harmonic 62.66 176.00   # HF/6-31G* 1
angle_coeff 1609 harmonic 64.43 179.94   # HF/6-31G* 1
angle_coeff 1610 harmonic 64.78 173.77   # HF/6-31G* 1
angle_coeff 1611 harmonic 64.01 176.12   # HF/6-31G* 1
angle_coeff 1612 harmonic 69.42 174.71   # HF/6-31G* 1
angle_coeff 1613 harmonic 70.24 174.27   # HF/6-31G* 1
    angle_coeff 1614 harmonic 54.64 180.00   # SOURCE3 1 0.0000
angle_coeff 1615 harmonic 57.01 175.07   # HF/6-31G* 1
angle_coeff 1616 harmonic 56.92 175.61   # HF/6-31G* 1
    angle_coeff 1617 harmonic 84.67 116.05   # SOURCE3 1 0.0000
    angle_coeff 1618 harmonic 80.34 119.93   # SOURCE3 1 0.0000
    angle_coeff 1619 harmonic 63.89 106.60   # SOURCE3 1
    angle_coeff 1620 harmonic 59.13 112.40   # SOURCE3 1 0.0000
    angle_coeff 1621 harmonic 61.08 110.42   # SOURCE3 1 0.0000
    angle_coeff 1622 harmonic 60.10 114.47   # SOURCE3 1 0.0000
    angle_coeff 1623 harmonic 80.05 111.03   # SOURCE3 1 0.0000
    angle_coeff 1624 harmonic 62.40 115.78   # SOURCE3 1 0.0000
    angle_coeff 1625 harmonic 74.41 121.10   # SOURCE3 1
    angle_coeff 1626 harmonic 58.67 151.88   # SOURCE3 4 15.8282
    angle_coeff 1627 harmonic 55.36 118.80   # SOURCE2 1 0.0000
    angle_coeff 1628 harmonic 51.47 126.50   # SOURCE2 3 7.6267
    angle_coeff 1629 harmonic 76.75 113.40   # SOURCE3 1
    angle_coeff 1630 harmonic 79.20 113.59   # SOURCE3 1
    angle_coeff 1631 harmonic 84.76 119.57   # SOURCE3 1
    angle_coeff 1632 harmonic 69.80 117.67   # SOURCE3 1
    angle_coeff 1633 harmonic 70.76 118.18   # SOURCE3 1
    angle_coeff 1634 harmonic 66.13 115.30   # SOURCE3 8 4.2940
    angle_coeff 1635 harmonic 69.83 119.94   # SOURCE3 1
    angle_coeff 1636 harmonic 56.69 112.64   # SOURCE3 1 0.0000
    angle_coeff 1637 harmonic 68.30 108.14   # SOURCE3 1 0.0000
    angle_coeff 1638 harmonic 52.63 110.33   # SOURCE3 9 0.6498
    angle_coeff 1639 harmonic 51.86 114.74   # SOURCE3 2 0.0139
angle_coeff 1640 harmonic 75.45 115.09   # HF/6-31G* 1
    angle_coeff 1641 harmonic 77.94 103.59   # SOURCE3 2 0.0000
    angle_coeff 1642 harmonic 71.34 118.14   # SOURCE3 1
    angle_coeff 1643 harmonic 62.39 112.22   # SOURCE3 3 0.0406
    angle_coeff 1644 harmonic 70.16 117.98   # SOURCE4 11 0.9019
    angle_coeff 1645 harmonic 70.35 117.58   # SOURCE3 8 1.6671
    angle_coeff 1646 harmonic 70.71 117.61   # SOURCE3 6 3.2642
    angle_coeff 1647 harmonic 64.22 111.54   # SOURCE3 1 0.0000
    angle_coeff 1648 harmonic 75.47 116.94   # SOURCE3 1
    angle_coeff 1649 harmonic 72.08 110.89   # SOURCE4 22 1.2709
    angle_coeff 1650 harmonic 71.83 110.51   # SOURCE4 13 0.7888
    angle_coeff 1651 harmonic 85.03 116.00   # SOURCE3 1
    angle_coeff 1652 harmonic 77.54 119.30   # SOURCE3 3 2.8489
    angle_coeff 1653 harmonic 79.28 118.77   # SOURCE3 1
    angle_coeff 1654 harmonic 68.12 112.29   # SOURCE3 1
    angle_coeff 1655 harmonic 68.85 116.24   # SOURCE3 1
    angle_coeff 1656 harmonic 68.67 118.00   # SOURCE3 1
    angle_coeff 1657 harmonic 63.09 115.48   # SOURCE3 1 0.0000
    angle_coeff 1658 harmonic 64.97 118.04   # SOURCE3 4 2.2804
    angle_coeff 1659 harmonic 63.76 110.70   # SOURCE3 1
    angle_coeff 1660 harmonic 65.97 114.95   # SOURCE4 5 0.9744
    angle_coeff 1661 harmonic 65.37 118.53   # CORR 123
    angle_coeff 1662 harmonic 65.37 118.53   # CORR 123
    angle_coeff 1663 harmonic 45.18 118.40   # SOURCE3 1
    angle_coeff 1664 harmonic 68.64 116.20   # SOURCE4 12 0.5407
    angle_coeff 1665 harmonic 69.29 111.18   # SOURCE3 7 0.4349
    angle_coeff 1666 harmonic 68.08 109.99   # SOURCE3 1 0.0000
    angle_coeff 1667 harmonic 70.29 112.40   # SOURCE2 1 0.0000
    angle_coeff 1668 harmonic 82.11 114.21   # SOURCE3 2 2.2772
    angle_coeff 1669 harmonic 66.28 113.84   # SOURCE3 1 0.0000
    angle_coeff 1670 harmonic 65.70 116.72   # SOURCE3 1 0.0000
    angle_coeff 1671 harmonic 71.79 112.20   # SOURCE3 1
    angle_coeff 1672 harmonic 50.01 120.00   # SOURCE3 1
    angle_coeff 1673 harmonic 74.00 113.53   # SOURCE3 1
    angle_coeff 1674 harmonic 75.26 116.00   # SOURCE2 1 0.0000
    angle_coeff 1675 harmonic 84.03 118.11   # SOURCE3 1
    angle_coeff 1676 harmonic 67.84 120.11   # SOURCE3 1
    angle_coeff 1677 harmonic 66.22 120.97   # SOURCE3 1
    angle_coeff 1678 harmonic 62.71 123.80   # SOURCE3 1
    angle_coeff 1679 harmonic 66.05 120.50   # SOURCE3 1
    angle_coeff 1680 harmonic 55.90 115.79   # CORR 2
    angle_coeff 1681 harmonic 52.42 110.72   # CORR 20
    angle_coeff 1682 harmonic 73.01 108.92   # SOURCE4 9 1.6245
    angle_coeff 1683 harmonic 70.37 118.47   # SOURCE4 6 1.7995
    angle_coeff 1684 harmonic 55.90 115.79   # CORR 2
    angle_coeff 1685 harmonic 52.42 110.72   # CORR 20
    angle_coeff 1686 harmonic 52.74 111.05   # CORR 69
    angle_coeff 1687 harmonic 70.35 118.04   # CORR 101
    angle_coeff 1688 harmonic 70.64 118.57   # CORR 54
    angle_coeff 1689 harmonic 77.37 112.16   # SOURCE3 1
    angle_coeff 1690 harmonic 71.48 113.38   # CORR 37
    angle_coeff 1691 harmonic 71.23 112.97   # CORR 40
    angle_coeff 1692 harmonic 69.30 116.28   # SOURCE3 1
    angle_coeff 1693 harmonic 52.74 111.05   # CORR 69
    angle_coeff 1694 harmonic 70.35 118.04   # CORR 101
    angle_coeff 1695 harmonic 70.64 118.57   # CORR 54
    angle_coeff 1696 harmonic 77.37 112.16   # SOURCE3 1 same_as_ce-n2-o
    angle_coeff 1697 harmonic 71.48 113.38   # CORR 37
    angle_coeff 1698 harmonic 71.23 112.97   # CORR 40
    angle_coeff 1699 harmonic 69.30 116.28   # SOURCE3 1 same_as_ce-n2-s
    angle_coeff 1700 harmonic 59.29 108.70   # SOURCE2 1 0.0000
    angle_coeff 1701 harmonic 58.70 110.47   # SOURCE3 1 0.0000
    angle_coeff 1702 harmonic 58.23 114.03   # SOURCE3 1
    angle_coeff 1703 harmonic 73.98 112.98   # SOURCE3 1 0.0000
    angle_coeff 1704 harmonic 58.50 115.77   # SOURCE3 1 0.0000
    angle_coeff 1705 harmonic 90.46 64.92   # SOURCE3 2 0.0000
    angle_coeff 1706 harmonic 68.29 114.60   # SOURCE2 1 0.0000
    angle_coeff 1707 harmonic 71.17 110.10   # SOURCE2 1 0.0000
    angle_coeff 1708 harmonic 84.30 107.10   # SOURCE3 1 0.0000
    angle_coeff 1709 harmonic 67.14 110.73   # SOURCE3 1 0.0000
    angle_coeff 1710 harmonic 38.61 120.00   # SOURCE3 1
    angle_coeff 1711 harmonic 55.33 114.10   # SOURCE2 1 0.0000
    angle_coeff 1712 harmonic 55.84 105.01   # SOURCE3 19 1.5183
    angle_coeff 1713 harmonic 54.69 108.56   # SOURCE3 29 5.5708
    angle_coeff 1714 harmonic 54.69 108.56   # SOURCE3 29 same_as_hn-n2-ne
    angle_coeff 1715 harmonic 57.61 107.37   # SOURCE3 1 0.0000
    angle_coeff 1716 harmonic 58.61 112.09   # SOURCE3 18 4.0663
    angle_coeff 1717 harmonic 54.50 111.33   # SOURCE3 1 0.0000
    angle_coeff 1718 harmonic 56.32 122.34   # SOURCE3 1 0.0000
    angle_coeff 1719 harmonic 61.28 111.41   # SOURCE3 20 4.9895
    angle_coeff 1720 harmonic 61.28 111.41   # SOURCE3 20 same_as_hn-n2-pe
    angle_coeff 1721 harmonic 48.34 115.80   # SOURCE2 1 0.0000
    angle_coeff 1722 harmonic 46.34 111.21   # SOURCE3 1 0.0000
    angle_coeff 1723 harmonic 49.11 108.17   # SOURCE3 1 0.0000
    angle_coeff 1724 harmonic 47.82 112.59   # SOURCE3 2 0.0000
    angle_coeff 1725 harmonic 53.71 111.79   # SOURCE3 1 0.0000
    angle_coeff 1726 harmonic 52.33 116.82   # SOURCE3 1 0.0000
    angle_coeff 1727 harmonic 72.31 113.26   # SOURCE3 1 0.0000
    angle_coeff 1728 harmonic 56.35 116.85   # SOURCE3 1 0.0000
angle_coeff 1729 harmonic 80.82 112.00   # HF/6-31G* 1
    angle_coeff 1730 harmonic 62.28 180.00   # dac_for_azides 0
    angle_coeff 1731 harmonic 78.20 109.49   # SOURCE3 2 0.0000
    angle_coeff 1732 harmonic 76.59 108.88   # SOURCE3 1
    angle_coeff 1733 harmonic 65.78 106.45   # SOURCE3 1 0.0000
    angle_coeff 1734 harmonic 74.18 112.23   # SOURCE3 1
    angle_coeff 1735 harmonic 74.76 111.70   # SOURCE3 5 0.3475
    angle_coeff 1736 harmonic 67.68 105.97   # SOURCE3 1 0.0000
    angle_coeff 1737 harmonic 80.17 110.43   # SOURCE3 1
    angle_coeff 1738 harmonic 74.02 111.51   # SOURCE3 1 0.0000
    angle_coeff 1739 harmonic 74.69 108.38   # SOURCE3 1 0.0000
    angle_coeff 1740 harmonic 90.07 109.15   # SOURCE3 1
    angle_coeff 1741 harmonic 81.73 113.05   # SOURCE3 1 0.0000
    angle_coeff 1742 harmonic 81.37 118.77   # SOURCE3 1
    angle_coeff 1743 harmonic 89.80 110.46   # SOURCE3 1
    angle_coeff 1744 harmonic 71.60 107.30   # SOURCE3 1
    angle_coeff 1745 harmonic 72.35 111.25   # SOURCE3 1
    angle_coeff 1746 harmonic 71.24 115.91   # SOURCE3 1
    angle_coeff 1747 harmonic 66.00 111.10   # SOURCE3 1 0.0000
    angle_coeff 1748 harmonic 68.46 112.14   # SOURCE3 1 0.0000
    angle_coeff 1749 harmonic 72.95 115.07   # SOURCE3 1
    angle_coeff 1750 harmonic 76.86 114.00   # SOURCE2 1 0.0000
    angle_coeff 1751 harmonic 86.69 115.34   # SOURCE3 1
    angle_coeff 1752 harmonic 69.96 117.13   # SOURCE3 1
    angle_coeff 1753 harmonic 59.97 106.70   # SOURCE3 1
    angle_coeff 1754 harmonic 64.86 112.20   # SOURCE3 1 0.0000
    angle_coeff 1755 harmonic 79.54 113.07   # SOURCE3 1 0.0000
    angle_coeff 1756 harmonic 62.44 118.50   # SOURCE3 1 0.0000
    angle_coeff 1757 harmonic 73.47 107.00   # SOURCE3 1
    angle_coeff 1758 harmonic 75.74 113.09   # SOURCE3 1 0.0000
    angle_coeff 1759 harmonic 84.58 119.16   # SOURCE3 1 0.0000
    angle_coeff 1760 harmonic 68.94 118.26   # SOURCE3 1 0.0000
    angle_coeff 1761 harmonic 74.13 113.09   # CORR 12
    angle_coeff 1762 harmonic 79.97 110.31   # SOURCE3 1
    angle_coeff 1763 harmonic 71.04 116.22   # SOURCE3 1
    angle_coeff 1764 harmonic 74.13 113.09   # CORR 12
    angle_coeff 1765 harmonic 79.97 110.31   # SOURCE3 1 same_as_ne-n2-o
    angle_coeff 1766 harmonic 71.04 116.22   # SOURCE3 1 same_as_ne-n2-s
    angle_coeff 1767 harmonic 69.67 121.20   # SOURCE3 1
    angle_coeff 1768 harmonic 76.02 113.60   # SOURCE4 13 1.0945
    angle_coeff 1769 harmonic 84.93 118.83   # SOURCE3 2 0.1024
    angle_coeff 1770 harmonic 69.56 116.90   # SOURCE3 2 0.2276
    angle_coeff 1771 harmonic 75.48 108.18   # SOURCE4 8 0.3496
    angle_coeff 1772 harmonic 74.99 115.10   # SOURCE4 31 0.2796
    angle_coeff 1773 harmonic 62.81 103.70   # SOURCE3 1
    angle_coeff 1774 harmonic 70.40 100.76   # SOURCE3 1 0.0000
    angle_coeff 1775 harmonic 81.32 111.95   # SOURCE3 1 0.0000
    angle_coeff 1776 harmonic 85.20 117.30   # SOURCE3 1 0.0000
    angle_coeff 1777 harmonic 69.64 115.74   # SOURCE3 1 0.0000
    angle_coeff 1778 harmonic 74.84 101.70   # SOURCE3 1
    angle_coeff 1779 harmonic 86.05 115.11   # SOURCE3 1 0.0000
    angle_coeff 1780 harmonic 69.52 116.08   # SOURCE3 1 0.0000
    angle_coeff 1781 harmonic 81.02 115.37   # SOURCE3 1
    angle_coeff 1782 harmonic 75.56 112.15   # SOURCE2 2 1.4500
    angle_coeff 1783 harmonic 75.73 110.35   # SOURCE3 2 0.0042
    angle_coeff 1784 harmonic 88.65 116.08   # SOURCE3 1
    angle_coeff 1785 harmonic 82.37 113.43   # SOURCE3 1 0.0000
    angle_coeff 1786 harmonic 85.23 110.61   # SOURCE3 1
    angle_coeff 1787 harmonic 91.73 109.11   # SOURCE3 1
    angle_coeff 1788 harmonic 85.18 134.56   # SOURCE3 1
    angle_coeff 1789 harmonic 85.18 134.56   # SOURCE3 1 same_as_o-n2-pe
    angle_coeff 1790 harmonic 72.12 108.91   # SOURCE3 1
    angle_coeff 1791 harmonic 73.56 111.34   # SOURCE3 1
    angle_coeff 1792 harmonic 72.09 117.18   # SOURCE3 1
    angle_coeff 1793 harmonic 65.55 114.98   # SOURCE3 1 0.0000
    angle_coeff 1794 harmonic 71.25 110.29   # SOURCE3 1
    angle_coeff 1795 harmonic 87.70 110.20   # SOURCE3 1 0.0000
    angle_coeff 1796 harmonic 68.39 115.34   # SOURCE3 1 0.0000
    angle_coeff 1797 harmonic 70.47 112.23   # SOURCE3 1 0.0000
    angle_coeff 1798 harmonic 107.12 116.80   # SOURCE3 1
    angle_coeff 1799 harmonic 98.43 124.48   # SOURCE3 1 0.0000
    angle_coeff 1800 harmonic 98.27 128.37   # SOURCE3 1
    angle_coeff 1801 harmonic 104.38 123.47   # SOURCE3 1
    angle_coeff 1802 harmonic 86.26 112.10   # SOURCE3 1
    angle_coeff 1803 harmonic 86.44 115.70   # SOURCE3 1
    angle_coeff 1804 harmonic 85.91 117.84   # SOURCE3 1
    angle_coeff 1805 harmonic 80.45 118.45   # SOURCE3 1 0.0000
    angle_coeff 1806 harmonic 82.01 120.43   # SOURCE3 1 0.0000
    angle_coeff 1807 harmonic 96.00 120.40   # SOURCE3 1
    angle_coeff 1808 harmonic 80.08 120.86   # SOURCE3 1 0.0000
    angle_coeff 1809 harmonic 77.83 131.84   # SOURCE3 1
    angle_coeff 1810 harmonic 105.81 120.60   # SOURCE3 1
    angle_coeff 1811 harmonic 85.34 119.89   # SOURCE3 1
    angle_coeff 1812 harmonic 88.59 115.73   # SOURCE3 1
    angle_coeff 1813 harmonic 88.59 115.73   # SOURCE3 1 same_as_pe-n2-s
    angle_coeff 1814 harmonic 66.00 119.18   # SOURCE3 1
    angle_coeff 1815 harmonic 67.18 119.18   # SOURCE3 1
    angle_coeff 1816 harmonic 68.49 119.18   # SOURCE3 1
    angle_coeff 1817 harmonic 59.95 123.93   # SOURCE3 1
    angle_coeff 1818 harmonic 61.33 123.93   # SOURCE3 1
    angle_coeff 1819 harmonic 68.47 120.88   # SOURCE3 1
    angle_coeff 1820 harmonic 69.20 113.00   # SOURCE3 1
    angle_coeff 1821 harmonic 68.60 119.61   # SOURCE3 1
    angle_coeff 1822 harmonic 63.58 122.05   # SOURCE3 1 0.0000
    angle_coeff 1823 harmonic 66.58 118.19   # SOURCE3 1 0.0000
    angle_coeff 1824 harmonic 62.92 123.93   # SOURCE3 1
    angle_coeff 1825 harmonic 66.54 107.15   # SOURCE3 1 0.0000
    angle_coeff 1826 harmonic 62.70 106.93   # SOURCE3 2 0.0000
    angle_coeff 1827 harmonic 64.09 123.34   # SOURCE3 1
    angle_coeff 1828 harmonic 68.22 104.70   # SOURCE2 1 0.0000
    angle_coeff 1829 harmonic 47.74 118.31   # SOURCE3 1
    angle_coeff 1830 harmonic 70.01 116.63   # SOURCE3 1
    angle_coeff 1831 harmonic 66.22 124.68   # SOURCE3 1
    angle_coeff 1832 harmonic 49.11 119.38   # SOURCE3 1
    angle_coeff 1833 harmonic 64.01 110.90   # SOURCE3 40 2.3048
    angle_coeff 1834 harmonic 57.82 107.23   # SOURCE3 3 0.3673
    angle_coeff 1835 harmonic 62.45 116.32   # SOURCE4 24 0.5119
    angle_coeff 1836 harmonic 61.69 118.26   # SOURCE4 14 0.8788
    angle_coeff 1837 harmonic 66.81 103.13   # SOURCE3 2 0.0000
    angle_coeff 1838 harmonic 47.13 109.92   # SOURCE3 120 2.2590
    angle_coeff 1839 harmonic 56.98 108.48   # SOURCE3 2 0.0000
    angle_coeff 1840 harmonic 66.23 118.75   # SOURCE2 2 2.6500
    angle_coeff 1841 harmonic 66.76 108.15   # SOURCE3 15 1.3999
    angle_coeff 1842 harmonic 67.18 109.65   # SOURCE3 3 0.1146
    angle_coeff 1843 harmonic 66.67 111.75   # SOURCE4 50 1.6777
    angle_coeff 1844 harmonic 66.37 111.89   # SOURCE4 21 1.3006
    angle_coeff 1845 harmonic 66.02 111.27   # SOURCE3 1 0.0000
    angle_coeff 1846 harmonic 68.68 113.31   # SOURCE3 5 8.9081
    angle_coeff 1847 harmonic 69.07 106.14   # SOURCE4 14 1.1040
    angle_coeff 1848 harmonic 68.48 104.95   # SOURCE4 9 0.9687
    angle_coeff 1849 harmonic 75.79 121.93   # SOURCE3 3 5.6009
    angle_coeff 1850 harmonic 78.53 119.81   # SOURCE4 58 1.8367
    angle_coeff 1851 harmonic 61.45 112.91   # SOURCE3 3 0.8983
    angle_coeff 1852 harmonic 63.67 116.57   # SOURCE4 73 1.8772
    angle_coeff 1853 harmonic 61.46 110.02   # SOURCE3 1 0.0000
    angle_coeff 1854 harmonic 62.06 112.70   # SOURCE3 1 0.0000
    angle_coeff 1855 harmonic 61.59 116.01   # SOURCE3 3 1.1944
    angle_coeff 1856 harmonic 62.43 115.27   # SOURCE4 108 1.7647
    angle_coeff 1857 harmonic 53.49 108.28   # SOURCE3 1 0.0000
    angle_coeff 1858 harmonic 39.61 104.39   # SOURCE3 2 0.0000
    angle_coeff 1859 harmonic 59.29 107.65   # SOURCE3 1 0.0000
    angle_coeff 1860 harmonic 86.39 60.71   # SOURCE4 57 0.2359
    angle_coeff 1861 harmonic 47.15 109.57   # SOURCE4 26 0.7439
    angle_coeff 1862 harmonic 78.66 119.32   # SOURCE4 71 1.1948
    angle_coeff 1863 harmonic 76.73 121.75   # SOURCE4 10 1.0295
    angle_coeff 1864 harmonic 70.04 90.87   # SOURCE4 10 0.5777
    angle_coeff 1865 harmonic 46.25 112.12   # SOURCE4 9 1.9058
    angle_coeff 1866 harmonic 67.71 102.22   # SOURCE2 4 0.7562
    angle_coeff 1867 harmonic 50.78 99.80   # SOURCE2 1 0.0000
    angle_coeff 1868 harmonic 41.30 107.13   # SOURCE3 44 1.9687
    angle_coeff 1869 harmonic 35.43 109.98   # SOURCE3 2 0.0000
angle_coeff 1870 harmonic 52.05 110.17   # HF/6-31G* 1
    angle_coeff 1871 harmonic 51.40 115.94   # SOURCE3 1
    angle_coeff 1872 harmonic 50.16 103.98   # SOURCE3 18 1.8593
    angle_coeff 1873 harmonic 50.87 106.40   # SOURCE3 5 0.5863
    angle_coeff 1874 harmonic 51.02 106.57   # SOURCE3 6 1.0767
    angle_coeff 1875 harmonic 50.32 107.89   # SOURCE3 1
    angle_coeff 1876 harmonic 50.44 107.39   # SOURCE3 11 1.6294
    angle_coeff 1877 harmonic 50.25 104.78   # SOURCE3 3 1.1126
    angle_coeff 1878 harmonic 53.14 113.32   # SOURCE3 3 4.3945
    angle_coeff 1879 harmonic 53.08 101.11   # SOURCE3 4 0.9921
    angle_coeff 1880 harmonic 51.67 100.92   # SOURCE3 6 0.7295
    angle_coeff 1881 harmonic 54.24 120.26   # SOURCE3 1
    angle_coeff 1882 harmonic 52.93 116.89   # SOURCE3 9 3.8816
    angle_coeff 1883 harmonic 54.97 113.05   # SOURCE3 2 0.0000
    angle_coeff 1884 harmonic 56.04 113.68   # SOURCE3 6 2.1781
    angle_coeff 1885 harmonic 42.47 108.93   # SOURCE3 7 1.7819
    angle_coeff 1886 harmonic 41.53 109.47   # SOURCE3 1
    angle_coeff 1887 harmonic 46.06 109.33   # SOURCE4 86 0.9610
    angle_coeff 1888 harmonic 43.12 108.67   # SOURCE3 3 2.5025
    angle_coeff 1889 harmonic 43.36 109.85   # SOURCE3 5 2.3215
    angle_coeff 1890 harmonic 44.15 109.49   # SOURCE4 278 0.7897
    angle_coeff 1891 harmonic 60.04 111.27   # SOURCE3 1 0.0000
angle_coeff 1892 harmonic 72.40 113.21   # HF/6-31G* 1
    angle_coeff 1893 harmonic 71.82 118.73   # SOURCE3 1
    angle_coeff 1894 harmonic 74.13 114.91   # SOURCE3 1
    angle_coeff 1895 harmonic 69.57 105.71   # SOURCE3 3 0.3561
    angle_coeff 1896 harmonic 69.04 113.48   # SOURCE3 1 0.0000
    angle_coeff 1897 harmonic 70.91 107.14   # SOURCE3 1
    angle_coeff 1898 harmonic 69.21 112.00   # SOURCE3 1
    angle_coeff 1899 harmonic 70.75 107.15   # SOURCE3 1 0.0000
    angle_coeff 1900 harmonic 70.25 110.55   # SOURCE3 1 0.0000
    angle_coeff 1901 harmonic 67.04 115.26   # SOURCE3 1 0.0000
    angle_coeff 1902 harmonic 72.79 107.18   # SOURCE3 1 0.0000
    angle_coeff 1903 harmonic 71.89 126.14   # SOURCE3 1
    angle_coeff 1904 harmonic 84.34 117.02   # SOURCE3 1
    angle_coeff 1905 harmonic 83.38 116.65   # SOURCE3 1
    angle_coeff 1906 harmonic 64.56 114.09   # SOURCE3 1
    angle_coeff 1907 harmonic 68.82 113.80   # SOURCE3 1
    angle_coeff 1908 harmonic 62.04 119.81   # SOURCE3 1
    angle_coeff 1909 harmonic 70.79 106.52   # SOURCE3 1 0.0000
    angle_coeff 1910 harmonic 97.53 130.13   # SOURCE3 1
    angle_coeff 1911 harmonic 98.56 118.74   # SOURCE3 3 3.3755
    angle_coeff 1912 harmonic 101.51 116.35   # SOURCE3 1
    angle_coeff 1913 harmonic 102.24 119.42   # SOURCE3 1 0.0000
    angle_coeff 1914 harmonic 60.13 120.02   # SOURCE3 1 0.0000
    angle_coeff 1915 harmonic 61.99 120.95   # SOURCE3 1
    angle_coeff 1916 harmonic 63.29 126.13   # SOURCE3 1 0.0000
    angle_coeff 1917 harmonic 61.24 118.63   # SOURCE3 1 0.0000
    angle_coeff 1918 harmonic 61.27 119.67   # SOURCE3 1
    angle_coeff 1919 harmonic 56.48 131.36   # SOURCE3 1 0.0000
    angle_coeff 1920 harmonic 61.60 119.57   # SOURCE3 1 0.0000
    angle_coeff 1921 harmonic 65.14 114.82   # SOURCE3 1 0.0000
    angle_coeff 1922 harmonic 41.38 108.44   # SOURCE3 7 0.5630
    angle_coeff 1923 harmonic 65.53 113.87   # SOURCE3 1 0.0000
    angle_coeff 1924 harmonic 48.62 110.19   # SOURCE3 7 1.0847
    angle_coeff 1925 harmonic 63.01 112.58   # SOURCE3 1 0.0000
    angle_coeff 1926 harmonic 63.10 110.96   # SOURCE4 13 2.4632
    angle_coeff 1927 harmonic 46.43 111.36   # SOURCE3 13 1.2672
    angle_coeff 1928 harmonic 62.84 110.64   # SOURCE3 13 1.3060
    angle_coeff 1929 harmonic 63.61 110.40   # SOURCE4 46 1.4643
    angle_coeff 1930 harmonic 62.84 111.09   # SOURCE4 7 0.7065
    angle_coeff 1931 harmonic 57.92 108.04   # SOURCE3 3 0.0000
    angle_coeff 1932 harmonic 46.19 110.11   # SOURCE3 100 1.3136
    angle_coeff 1933 harmonic 66.73 108.72   # SOURCE3 2 0.0000
    angle_coeff 1934 harmonic 63.72 114.07   # SOURCE3 4 0.0000
    angle_coeff 1935 harmonic 66.20 109.26   # SOURCE4 7 1.9859
    angle_coeff 1936 harmonic 64.76 111.73   # SOURCE3 1 0.0000
    angle_coeff 1937 harmonic 65.25 109.08   # SOURCE3 1 0.0000
    angle_coeff 1938 harmonic 67.25 111.66   # SOURCE3 1 0.0000
    angle_coeff 1939 harmonic 65.90 113.73   # SOURCE3 1 0.0000
    angle_coeff 1940 harmonic 67.38 107.42   # SOURCE3 3 3.5920
    angle_coeff 1941 harmonic 71.92 112.52   # SOURCE3 1 0.0000
    angle_coeff 1942 harmonic 74.40 110.73   # SOURCE3 3 2.1084
    angle_coeff 1943 harmonic 75.11 113.22   # SOURCE3 3 0.4021
    angle_coeff 1944 harmonic 57.21 108.23   # SOURCE3 3 0.4195
    angle_coeff 1945 harmonic 57.75 111.56   # SOURCE3 3 1.8851
    angle_coeff 1946 harmonic 59.21 113.55   # SOURCE3 1 0.0000
    angle_coeff 1947 harmonic 59.13 115.81   # SOURCE3 1 0.0000
    angle_coeff 1948 harmonic 59.66 113.68   # SOURCE3 3 1.1405
    angle_coeff 1949 harmonic 63.21 114.48   # SOURCE3 1 0.0000
    angle_coeff 1950 harmonic 47.54 108.52   # SOURCE3 5 1.1693
    angle_coeff 1951 harmonic 61.50 108.61   # SOURCE3 1 0.0000
    angle_coeff 1952 harmonic 44.68 110.86   # SOURCE3 10 1.0073
    angle_coeff 1953 harmonic 52.73 114.91   # SOURCE3 1 0.0000
    angle_coeff 1954 harmonic 39.53 108.87   # SOURCE3 7 0.7719
    angle_coeff 1955 harmonic 70.47 109.05   # SOURCE3 1 0.0000
    angle_coeff 1956 harmonic 51.67 108.39   # SOURCE3 4 0.0000
    angle_coeff 1957 harmonic 40.52 108.11   # SOURCE3 208 1.4126
    angle_coeff 1958 harmonic 36.44 108.72   # SOURCE3 7 1.2717
angle_coeff 1959 harmonic 51.79 109.39   # HF/6-31G* 1
    angle_coeff 1960 harmonic 42.29 109.68   # SOURCE3 19 0.6266
    angle_coeff 1961 harmonic 49.85 110.40   # SOURCE3 11 0.7307
    angle_coeff 1962 harmonic 48.09 108.66   # SOURCE3 18 1.2967
    angle_coeff 1963 harmonic 49.59 109.08   # SOURCE3 13 1.6047
    angle_coeff 1964 harmonic 49.43 109.38   # SOURCE3 25 1.0758
    angle_coeff 1965 harmonic 48.36 109.92   # SOURCE3 12 0.7304
    angle_coeff 1966 harmonic 49.19 104.38   # SOURCE3 2 0.0000
    angle_coeff 1967 harmonic 52.09 109.26   # SOURCE3 6 2.1203
    angle_coeff 1968 harmonic 51.12 108.09   # SOURCE3 6 1.6728
    angle_coeff 1969 harmonic 50.15 109.39   # SOURCE3 10 1.4403
    angle_coeff 1970 harmonic 47.71 110.50   # SOURCE3 25 1.0664
    angle_coeff 1971 harmonic 49.73 109.89   # SOURCE3 10 2.3870
    angle_coeff 1972 harmonic 47.65 111.33   # SOURCE3 3 0.0000
    angle_coeff 1973 harmonic 51.29 110.00   # SOURCE3 10 1.0282
    angle_coeff 1974 harmonic 47.36 117.89   # SOURCE3 8 0.0000
    angle_coeff 1975 harmonic 37.07 110.10   # SOURCE3 6 0.8471
    angle_coeff 1976 harmonic 41.06 106.89   # SOURCE3 6 1.0775
    angle_coeff 1977 harmonic 38.64 108.94   # SOURCE3 10 0.5715
    angle_coeff 1978 harmonic 41.29 108.56   # SOURCE3 6 0.8535
    angle_coeff 1979 harmonic 41.15 109.17   # SOURCE3 10 0.8455
    angle_coeff 1980 harmonic 58.99 118.49   # SOURCE3 1 0.0000
angle_coeff 1981 harmonic 72.69 110.67   # HF/6-31G* 1
    angle_coeff 1982 harmonic 59.43 108.64   # SOURCE3 1 0.0000
    angle_coeff 1983 harmonic 69.79 111.07   # SOURCE3 1 0.0000
    angle_coeff 1984 harmonic 65.21 115.49   # SOURCE3 1 0.0000
    angle_coeff 1985 harmonic 66.27 119.60   # SOURCE3 1 0.0000
    angle_coeff 1986 harmonic 67.83 109.38   # SOURCE3 1 0.0000
    angle_coeff 1987 harmonic 66.68 118.62   # SOURCE3 1 0.0000
    angle_coeff 1988 harmonic 72.25 108.19   # SOURCE3 1 0.0000
    angle_coeff 1989 harmonic 70.28 120.97   # SOURCE3 1 0.0000
    angle_coeff 1990 harmonic 72.46 104.40   # SOURCE3 1 0.0000
    angle_coeff 1991 harmonic 89.65 113.91   # SOURCE3 2 0.0000
    angle_coeff 1992 harmonic 89.71 121.38   # SOURCE3 1 0.0000
    angle_coeff 1993 harmonic 98.15 107.02   # SOURCE3 1 0.0000
    angle_coeff 1994 harmonic 116.94 69.79   # SOURCE3 2 0.0000
    angle_coeff 1995 harmonic 54.75 115.43   # SOURCE3 1
    angle_coeff 1996 harmonic 57.91 109.51   # SOURCE3 1 0.0000
    angle_coeff 1997 harmonic 60.37 112.59   # SOURCE3 1 0.0000
    angle_coeff 1998 harmonic 56.74 124.55   # SOURCE3 1 0.0000
    angle_coeff 1999 harmonic 61.26 109.20   # SOURCE3 1 0.0000
    angle_coeff 2000 harmonic 60.55 123.00   # SOURCE3 1
    angle_coeff 2001 harmonic 63.61 100.48   # SOURCE3 2 1.0536
    angle_coeff 2002 harmonic 57.15 124.81   # SOURCE3 1
    angle_coeff 2003 harmonic 57.16 124.62   # SOURCE3 3 0.5348
    angle_coeff 2004 harmonic 57.16 124.62   # SOURCE3 3 same_as_br-na-cc
    angle_coeff 2005 harmonic 59.86 119.42   # SOURCE3 4 1.6703
    angle_coeff 2006 harmonic 59.86 119.42   # SOURCE3 4 same_as_br-na-nc
    angle_coeff 2007 harmonic 63.92 104.99   # SOURCE3 1 0.0000
    angle_coeff 2008 harmonic 75.91 121.01   # SOURCE3 1
    angle_coeff 2009 harmonic 76.39 120.26   # SOURCE3 3 2.1456
    angle_coeff 2010 harmonic 76.39 120.26   # SOURCE3 3 same_as_br-na-pc
    angle_coeff 2011 harmonic 62.46 112.28   # SOURCE3 1 0.0000
    angle_coeff 2012 harmonic 67.20 117.20   # SOURCE3 1
    angle_coeff 2013 harmonic 64.32 125.20   # SOURCE3 1
    angle_coeff 2014 harmonic 66.54 120.57   # SOURCE3 1
    angle_coeff 2015 harmonic 65.82 121.35   # SOURCE3 6 0.6517
    angle_coeff 2016 harmonic 65.82 121.35   # SOURCE3 6 0.6517
    angle_coeff 2017 harmonic 68.27 120.24   # SOURCE3 4 1.6849
    angle_coeff 2018 harmonic 68.27 120.24   # SOURCE3 4 same_as_c1-na-nc
    angle_coeff 2019 harmonic 70.24 106.96   # SOURCE3 2 0.0000
    angle_coeff 2020 harmonic 76.49 122.25   # SOURCE3 1
    angle_coeff 2021 harmonic 77.33 121.48   # SOURCE3 3 2.1681
    angle_coeff 2022 harmonic 77.33 121.48   # SOURCE3 3 same_as_c1-na-pc
    angle_coeff 2023 harmonic 61.89 118.30   # SOURCE3 1 0.0000
    angle_coeff 2024 harmonic 67.80 110.37   # SOURCE3 6 0.5121
    angle_coeff 2025 harmonic 64.23 117.20   # SOURCE3 2 0.0000
    angle_coeff 2026 harmonic 64.55 125.33   # SOURCE4 7 0.5648
    angle_coeff 2027 harmonic 63.98 125.75   # SOURCE3 10 1.5856
    angle_coeff 2028 harmonic 63.98 125.75   # SOURCE3 10 1.5856
    angle_coeff 2029 harmonic 58.85 101.01   # SOURCE3 2 1.5799
    angle_coeff 2030 harmonic 68.64 103.11   # SOURCE3 1 0.0000
    angle_coeff 2031 harmonic 47.62 119.28   # SOURCE3 14 6.6027
    angle_coeff 2032 harmonic 58.98 106.74   # SOURCE3 1 0.0000
angle_coeff 2033 harmonic 66.27 124.81   # HF/6-31G* 1
    angle_coeff 2034 harmonic 65.80 125.00   # SOURCE3 1
    angle_coeff 2035 harmonic 64.64 124.80   # SOURCE3 1
    angle_coeff 2036 harmonic 65.19 121.32   # SOURCE3 1
    angle_coeff 2037 harmonic 65.63 124.70   # SOURCE3 1
    angle_coeff 2038 harmonic 65.14 124.60   # SOURCE3 1
    angle_coeff 2039 harmonic 67.42 120.61   # CORR 9
    angle_coeff 2040 harmonic 67.42 120.61   # CORR 9
    angle_coeff 2041 harmonic 65.04 124.98   # SOURCE3 1
    angle_coeff 2042 harmonic 64.34 124.20   # SOURCE3 1
    angle_coeff 2043 harmonic 68.21 125.90   # SOURCE3 1
    angle_coeff 2044 harmonic 65.80 123.90   # SOURCE3 1
    angle_coeff 2045 harmonic 68.53 110.33   # SOURCE3 4 3.2172
    angle_coeff 2046 harmonic 76.19 122.14   # SOURCE3 1
    angle_coeff 2047 harmonic 74.55 126.10   # SOURCE3 1
    angle_coeff 2048 harmonic 81.58 125.00   # SOURCE3 1
    angle_coeff 2049 harmonic 76.43 125.10   # SOURCE3 1
    angle_coeff 2050 harmonic 76.96 121.56   # SOURCE3 3 1.6252
    angle_coeff 2051 harmonic 76.96 121.56   # SOURCE3 3 same_as_c2-na-pc
    angle_coeff 2052 harmonic 58.37 124.90   # SOURCE3 1
    angle_coeff 2053 harmonic 60.24 124.40   # SOURCE3 1
    angle_coeff 2054 harmonic 58.90 125.80   # SOURCE3 1
    angle_coeff 2055 harmonic 60.23 125.10   # SOURCE3 1
    angle_coeff 2056 harmonic 62.34 115.53   # SOURCE3 5 1.4036
    angle_coeff 2057 harmonic 60.72 125.59   # SOURCE3 1 0.0000
    angle_coeff 2058 harmonic 63.15 124.36   # SOURCE3 5 4.2557
    angle_coeff 2059 harmonic 62.56 125.09   # SOURCE3 18 1.2138
    angle_coeff 2060 harmonic 62.56 125.09   # SOURCE3 18 1.2138
    angle_coeff 2061 harmonic 63.76 119.46   # SOURCE4 7 0.4108
    angle_coeff 2062 harmonic 65.48 120.05   # SOURCE4 5 0.8795
    angle_coeff 2063 harmonic 67.37 112.68   # SOURCE4 12 0.5122
    angle_coeff 2064 harmonic 65.74 120.46   # SOURCE3 8 2.1625
    angle_coeff 2065 harmonic 65.74 120.46   # SOURCE3 8 2.1625
    angle_coeff 2066 harmonic 68.91 104.39   # SOURCE3 3 1.2017
    angle_coeff 2067 harmonic 75.04 123.12   # SOURCE3 1
    angle_coeff 2068 harmonic 75.89 122.11   # SOURCE3 3 2.8504
    angle_coeff 2069 harmonic 75.89 122.11   # SOURCE3 3 same_as_c3-na-pc
    angle_coeff 2070 harmonic 63.38 110.28   # SOURCE3 1
    angle_coeff 2071 harmonic 62.90 110.87   # SOURCE3 3 0.8260
    angle_coeff 2072 harmonic 66.98 120.09   # SOURCE4 321 1.7366
    angle_coeff 2073 harmonic 68.46 113.15   # SOURCE3 18 9.8644
    angle_coeff 2074 harmonic 68.46 113.15   # SOURCE3 18 9.8644
    angle_coeff 2075 harmonic 53.17 124.79   # SOURCE3 1
    angle_coeff 2076 harmonic 65.88 120.96   # SOURCE4 20 1.2820
    angle_coeff 2077 harmonic 63.07 124.09   # SOURCE4 12 1.8167
    angle_coeff 2078 harmonic 65.51 116.40   # SOURCE3 1
    angle_coeff 2079 harmonic 47.63 125.59   # SOURCE4 437 1.1893
    angle_coeff 2080 harmonic 55.21 121.62   # SOURCE3 1
    angle_coeff 2081 harmonic 68.21 119.85   # SOURCE4 6 1.2043
    angle_coeff 2082 harmonic 66.37 120.19   # SOURCE3 1
    angle_coeff 2083 harmonic 67.34 122.00   # SOURCE3 1
    angle_coeff 2084 harmonic 66.29 123.76   # SOURCE3 1
    angle_coeff 2085 harmonic 68.18 122.16   # SOURCE4 7 0.8543
    angle_coeff 2086 harmonic 69.27 117.85   # SOURCE3 6 3.6536
    angle_coeff 2087 harmonic 69.27 117.85   # SOURCE3 6 same_as_ca-na-nc
    angle_coeff 2088 harmonic 66.14 124.33   # SOURCE4 7 1.3855
    angle_coeff 2089 harmonic 71.14 119.99   # SOURCE4 51 1.2671
    angle_coeff 2090 harmonic 66.69 124.08   # SOURCE3 1
    angle_coeff 2091 harmonic 69.70 109.46   # SOURCE3 1 0.0000
    angle_coeff 2092 harmonic 75.51 125.85   # SOURCE3 1
    angle_coeff 2093 harmonic 75.50 124.38   # SOURCE3 1
    angle_coeff 2094 harmonic 82.41 124.97   # SOURCE3 1
    angle_coeff 2095 harmonic 77.51 123.30   # SOURCE3 1
    angle_coeff 2096 harmonic 77.26 122.13   # SOURCE3 3 2.2393
    angle_coeff 2097 harmonic 77.26 122.13   # SOURCE3 3 same_as_ca-na-pc
    angle_coeff 2098 harmonic 72.61 140.88   # SOURCE3 2 0.0000
    angle_coeff 2099 harmonic 60.55 117.23   # SOURCE3 1
    angle_coeff 2100 harmonic 61.55 120.69   # SOURCE3 1
    angle_coeff 2101 harmonic 59.27 125.64   # SOURCE3 1
    angle_coeff 2102 harmonic 60.55 125.44   # SOURCE3 1
    angle_coeff 2103 harmonic 59.16 129.91   # SOURCE4 8 0.1449
    angle_coeff 2104 harmonic 68.94 109.90   # SOURCE3 109 1.5547
    angle_coeff 2105 harmonic 63.88 128.01   # SOURCE3 1 0.0000
    angle_coeff 2106 harmonic 63.05 126.61   # SOURCE4 8 0.5158
    angle_coeff 2107 harmonic 53.10 124.61   # SOURCE3 3 0.5208
    angle_coeff 2108 harmonic 64.60 118.03   # SOURCE3 4 0.3081
    angle_coeff 2109 harmonic 47.02 125.50   # CORR 861
    angle_coeff 2110 harmonic 54.34 125.70   # SOURCE3 6 0.7821
    angle_coeff 2111 harmonic 66.83 122.96   # SOURCE3 15 0.9350
    angle_coeff 2112 harmonic 65.90 120.31   # SOURCE3 10 3.4394
    angle_coeff 2113 harmonic 66.52 123.19   # SOURCE3 13 0.3010
    angle_coeff 2114 harmonic 65.91 123.43   # SOURCE3 23 0.2088
    angle_coeff 2115 harmonic 70.18 113.02   # SOURCE3 38 2.2867
    angle_coeff 2116 harmonic 66.41 126.22   # CORR 124
    angle_coeff 2117 harmonic 66.23 122.25   # SOURCE3 19 0.2010
    angle_coeff 2118 harmonic 65.40 121.78   # SOURCE3 9 0.3521
    angle_coeff 2119 harmonic 69.01 125.21   # SOURCE3 10 0.0124
    angle_coeff 2120 harmonic 66.67 122.38   # SOURCE3 10 0.1570
    angle_coeff 2121 harmonic 67.01 116.86   # CORR 48
    angle_coeff 2122 harmonic 75.29 125.86   # SOURCE3 14 2.2993
    angle_coeff 2123 harmonic 75.02 125.25   # SOURCE3 8 0.1998
    angle_coeff 2124 harmonic 81.11 127.73   # SOURCE3 7 3.6077
    angle_coeff 2125 harmonic 76.81 124.70   # SOURCE3 13 1.4225
    angle_coeff 2126 harmonic 59.45 121.03   # SOURCE3 10 0.5589
    angle_coeff 2127 harmonic 60.98 122.19   # SOURCE3 10 0.9634
    angle_coeff 2128 harmonic 59.10 125.66   # SOURCE3 8 0.1880
    angle_coeff 2129 harmonic 60.71 123.96   # SOURCE3 10 0.3424
    angle_coeff 2130 harmonic 61.34 120.10   # CORR 44
    angle_coeff 2131 harmonic 68.94 109.90   # SOURCE3 109 1.5547
    angle_coeff 2132 harmonic 53.10 124.61   # SOURCE3 3 same_as_cc-na-cl
    angle_coeff 2133 harmonic 64.60 118.03   # SOURCE3 4 0.3081
    angle_coeff 2134 harmonic 47.02 125.50   # CORR 861
    angle_coeff 2135 harmonic 54.34 125.70   # SOURCE3 6 0.7821
    angle_coeff 2136 harmonic 66.83 122.96   # SOURCE3 15 0.9350
    angle_coeff 2137 harmonic 65.90 120.31   # SOURCE3 10 3.4394
    angle_coeff 2138 harmonic 66.52 123.19   # SOURCE3 13 0.3010
    angle_coeff 2139 harmonic 65.91 123.43   # SOURCE3 23 0.2088
    angle_coeff 2140 harmonic 66.41 126.22   # CORR 124
    angle_coeff 2141 harmonic 70.18 113.02   # SOURCE3 38 2.2867
    angle_coeff 2142 harmonic 66.23 122.25   # SOURCE3 19 0.2010
    angle_coeff 2143 harmonic 65.40 121.78   # SOURCE3 9 0.3521
    angle_coeff 2144 harmonic 69.01 125.21   # SOURCE3 10 0.0124
    angle_coeff 2145 harmonic 66.67 122.38   # SOURCE3 10 0.1570
    angle_coeff 2146 harmonic 67.01 116.86   # CORR 48
    angle_coeff 2147 harmonic 75.29 125.86   # SOURCE3 14 2.2993
    angle_coeff 2148 harmonic 75.02 125.25   # SOURCE3 8 0.1998
    angle_coeff 2149 harmonic 81.11 127.73   # SOURCE3 7 same_as_cc-na-p4
    angle_coeff 2150 harmonic 76.81 124.70   # SOURCE3 13 1.4225
    angle_coeff 2151 harmonic 59.45 121.03   # SOURCE3 10 0.5589
    angle_coeff 2152 harmonic 60.98 122.19   # SOURCE3 10 0.9634
    angle_coeff 2153 harmonic 59.10 125.66   # SOURCE3 8 0.1880
    angle_coeff 2154 harmonic 60.71 123.96   # SOURCE3 10 0.3424
    angle_coeff 2155 harmonic 61.34 120.10   # CORR 44
    angle_coeff 2156 harmonic 48.73 122.80   # SOURCE3 1
    angle_coeff 2157 harmonic 55.70 119.36   # SOURCE3 4 1.7128
    angle_coeff 2158 harmonic 55.70 119.36   # SOURCE3 4 same_as_cl-na-nc
    angle_coeff 2159 harmonic 58.63 106.58   # SOURCE3 1 0.0000
    angle_coeff 2160 harmonic 68.67 121.29   # SOURCE3 1
    angle_coeff 2161 harmonic 69.19 120.51   # SOURCE3 3 2.1985
    angle_coeff 2162 harmonic 69.19 120.51   # SOURCE3 3 same_as_cl-na-pc
    angle_coeff 2163 harmonic 56.71 111.91   # SOURCE3 1 0.0000
    angle_coeff 2164 harmonic 62.22 120.20   # SOURCE3 1
    angle_coeff 2165 harmonic 66.64 118.05   # SOURCE3 4 1.7931
    angle_coeff 2166 harmonic 66.64 118.05   # SOURCE3 4 same_as_f-na-nc
    angle_coeff 2167 harmonic 69.15 103.86   # SOURCE3 1 0.0000
    angle_coeff 2168 harmonic 75.54 119.95   # SOURCE3 1
    angle_coeff 2169 harmonic 76.37 119.10   # SOURCE3 3 2.3967
    angle_coeff 2170 harmonic 76.37 119.10   # SOURCE3 3 same_as_f-na-pc
    angle_coeff 2171 harmonic 63.34 108.01   # SOURCE3 1 0.0000
    angle_coeff 2172 harmonic 39.83 116.80   # SOURCE3 1
    angle_coeff 2173 harmonic 50.90 111.26   # SOURCE4 5 1.1280
    angle_coeff 2174 harmonic 50.00 119.61   # SOURCE3 16 1.8079
    angle_coeff 2175 harmonic 50.00 119.61   # SOURCE3 16 1.8079
    angle_coeff 2176 harmonic 51.44 101.41   # SOURCE3 7 3.0814
    angle_coeff 2177 harmonic 51.02 122.52   # SOURCE3 1
    angle_coeff 2178 harmonic 51.81 121.48   # SOURCE3 3 2.9355
    angle_coeff 2179 harmonic 51.81 121.48   # SOURCE3 3 same_as_hn-na-pc
    angle_coeff 2180 harmonic 42.24 113.95   # SOURCE3 1 0.0000
    angle_coeff 2181 harmonic 58.32 124.20   # SOURCE3 1
    angle_coeff 2182 harmonic 56.94 120.03   # SOURCE3 4 2.0032
    angle_coeff 2183 harmonic 56.94 120.03   # SOURCE3 4 same_as_i-na-nc
    angle_coeff 2184 harmonic 59.85 109.91   # SOURCE3 1 0.0000
    angle_coeff 2185 harmonic 73.36 122.28   # SOURCE3 1
    angle_coeff 2186 harmonic 73.81 121.40   # SOURCE3 3 2.4763
    angle_coeff 2187 harmonic 73.81 121.40   # SOURCE3 3 same_as_i-na-pc
    angle_coeff 2188 harmonic 59.04 118.40   # SOURCE3 1 0.0000
    angle_coeff 2189 harmonic 70.35 116.71   # SOURCE3 1
    angle_coeff 2190 harmonic 69.85 119.96   # SOURCE3 4 4.5041
    angle_coeff 2191 harmonic 69.85 119.96   # SOURCE3 4 same_as_n2-na-nc
    angle_coeff 2192 harmonic 70.33 111.53   # SOURCE3 1 0.0000
    angle_coeff 2193 harmonic 77.46 124.88   # SOURCE3 1
    angle_coeff 2194 harmonic 78.60 123.18   # SOURCE3 3 4.7947
    angle_coeff 2195 harmonic 78.60 123.18   # SOURCE3 3 same_as_n2-na-pc
    angle_coeff 2196 harmonic 61.71 124.64   # SOURCE3 1 0.0000
    angle_coeff 2197 harmonic 65.77 124.00   # SOURCE3 1
    angle_coeff 2198 harmonic 68.57 111.70   # SOURCE3 1
    angle_coeff 2199 harmonic 69.09 116.44   # SOURCE3 4 3.6604
    angle_coeff 2200 harmonic 69.09 116.44   # SOURCE3 4 same_as_n4-na-nc
    angle_coeff 2201 harmonic 71.61 102.97   # SOURCE3 1 0.0000
    angle_coeff 2202 harmonic 77.04 123.56   # SOURCE3 1
    angle_coeff 2203 harmonic 78.10 121.98   # SOURCE3 3 4.4884
    angle_coeff 2204 harmonic 78.10 121.98   # SOURCE3 3 same_as_n4-na-pc
    angle_coeff 2205 harmonic 66.77 123.60   # SOURCE3 1
    angle_coeff 2206 harmonic 69.08 119.64   # SOURCE3 4 1.6920
    angle_coeff 2207 harmonic 69.08 119.64   # SOURCE3 4 same_as_na-na-nc
    angle_coeff 2208 harmonic 70.25 109.47   # SOURCE3 1 0.0000
    angle_coeff 2209 harmonic 78.07 121.72   # SOURCE3 1
    angle_coeff 2210 harmonic 78.92 120.91   # SOURCE3 3 2.3033
    angle_coeff 2211 harmonic 78.92 120.91   # SOURCE3 3 same_as_na-na-pc
    angle_coeff 2212 harmonic 63.50 116.50   # SOURCE3 1 0.0000
    angle_coeff 2213 harmonic 71.20 117.08   # SOURCE3 31 1.8121
    angle_coeff 2214 harmonic 69.53 122.77   # SOURCE4 5 0.1352
    angle_coeff 2215 harmonic 68.82 120.55   # SOURCE3 8 1.1436
    angle_coeff 2216 harmonic 68.19 119.15   # SOURCE3 4 1.6049
    angle_coeff 2217 harmonic 72.04 122.79   # SOURCE3 6 1.3154
    angle_coeff 2218 harmonic 69.71 119.22   # SOURCE3 4 1.7201
    angle_coeff 2219 harmonic 68.30 119.65   # SOURCE3 4 1.5019
    angle_coeff 2220 harmonic 79.23 119.99   # SOURCE3 4 3.6009
    angle_coeff 2221 harmonic 78.72 120.07   # SOURCE3 4 3.7188
    angle_coeff 2222 harmonic 86.25 119.77   # SOURCE3 3 0.3747
    angle_coeff 2223 harmonic 80.84 118.95   # SOURCE3 4 3.1194
    angle_coeff 2224 harmonic 80.31 118.66   # SOURCE3 27 1.5082
    angle_coeff 2225 harmonic 61.52 119.20   # SOURCE3 4 2.3841
    angle_coeff 2226 harmonic 63.45 119.24   # SOURCE3 4 2.2262
    angle_coeff 2227 harmonic 61.55 122.26   # SOURCE3 4 0.9173
    angle_coeff 2228 harmonic 63.29 120.50   # SOURCE3 4 1.5016
    angle_coeff 2229 harmonic 62.94 120.50   # SOURCE3 4 1.5615
    angle_coeff 2230 harmonic 71.20 117.08   # SOURCE3 31 1.8121
    angle_coeff 2231 harmonic 68.82 120.55   # SOURCE3 8 same_as_nc-na-nh
    angle_coeff 2232 harmonic 68.19 119.15   # SOURCE3 4 same_as_nc-na-no
    angle_coeff 2233 harmonic 72.04 122.79   # SOURCE3 6 same_as_nc-na-o
    angle_coeff 2234 harmonic 69.71 119.22   # SOURCE3 4 same_as_nc-na-oh
    angle_coeff 2235 harmonic 68.30 119.65   # SOURCE3 4 same_as_nc-na-os
    angle_coeff 2236 harmonic 79.23 119.99   # SOURCE3 4 same_as_nc-na-p2
    angle_coeff 2237 harmonic 78.72 120.07   # SOURCE3 4 same_as_nc-na-p3
    angle_coeff 2238 harmonic 86.25 119.77   # SOURCE3 3 same_as_nc-na-p4
    angle_coeff 2239 harmonic 80.84 118.95   # SOURCE3 4 same_as_nc-na-p5
    angle_coeff 2240 harmonic 80.31 118.66   # SOURCE3 27 same_as_nc-na-pc
    angle_coeff 2241 harmonic 61.52 119.20   # SOURCE3 4 same_as_nc-na-s4
    angle_coeff 2242 harmonic 63.45 119.24   # SOURCE3 4 same_as_nc-na-s6
    angle_coeff 2243 harmonic 61.55 122.26   # SOURCE3 4 same_as_nc-na-s
    angle_coeff 2244 harmonic 63.29 120.50   # SOURCE3 4 same_as_nc-na-sh
    angle_coeff 2245 harmonic 62.94 120.50   # SOURCE3 4 same_as_nc-na-ss
    angle_coeff 2246 harmonic 66.77 123.60   # SOURCE3 1
    angle_coeff 2247 harmonic 69.65 111.37   # SOURCE3 1 0.0000
    angle_coeff 2248 harmonic 78.35 120.86   # SOURCE3 1
    angle_coeff 2249 harmonic 79.10 120.38   # SOURCE3 6 1.3513
    angle_coeff 2250 harmonic 79.10 120.38   # SOURCE3 6 same_as_nh-na-pc
    angle_coeff 2251 harmonic 64.66 112.35   # SOURCE3 2 5.2951
    angle_coeff 2252 harmonic 67.78 123.80   # SOURCE3 1
    angle_coeff 2253 harmonic 69.61 119.85   # SOURCE3 4 1.6156
    angle_coeff 2254 harmonic 69.61 119.85   # SOURCE3 4 same_as_n-na-nc
    angle_coeff 2255 harmonic 65.22 122.80   # SOURCE3 1
    angle_coeff 2256 harmonic 70.30 106.55   # SOURCE3 1 0.0000
    angle_coeff 2257 harmonic 78.65 120.11   # SOURCE3 3 2.0821
    angle_coeff 2258 harmonic 78.65 120.11   # SOURCE3 3 same_as_no-na-pc
    angle_coeff 2259 harmonic 72.34 104.71   # SOURCE3 1 0.0000
    angle_coeff 2260 harmonic 63.49 114.95   # SOURCE3 1 0.0000
    angle_coeff 2261 harmonic 78.46 121.35   # SOURCE3 1
    angle_coeff 2262 harmonic 79.30 120.64   # SOURCE3 3 2.0168
    angle_coeff 2263 harmonic 79.30 120.64   # SOURCE3 3 same_as_n-na-pc
    angle_coeff 2264 harmonic 63.84 116.10   # SOURCE3 1 0.0000
    angle_coeff 2265 harmonic 68.13 122.20   # SOURCE3 1
    angle_coeff 2266 harmonic 78.88 120.76   # SOURCE3 1
    angle_coeff 2267 harmonic 79.74 119.99   # SOURCE3 3 2.1734
    angle_coeff 2268 harmonic 79.74 119.99   # SOURCE3 3 same_as_oh-na-pc
    angle_coeff 2269 harmonic 64.88 113.04   # SOURCE3 1 0.0000
    angle_coeff 2270 harmonic 74.03 126.20   # SOURCE3 1
    angle_coeff 2271 harmonic 70.76 118.39   # SOURCE3 1 0.0000
    angle_coeff 2272 harmonic 79.51 122.80   # SOURCE3 1
    angle_coeff 2273 harmonic 80.36 122.34   # SOURCE3 3 1.2908
    angle_coeff 2274 harmonic 80.36 122.34   # SOURCE3 3 same_as_o-na-pc
    angle_coeff 2275 harmonic 71.29 104.45   # SOURCE3 2 0.0983
    angle_coeff 2276 harmonic 79.21 117.86   # SOURCE3 1 0.0000
    angle_coeff 2277 harmonic 83.58 104.70   # SOURCE3 1 0.0000
    angle_coeff 2278 harmonic 82.64 111.41   # SOURCE3 1 0.0000
    angle_coeff 2279 harmonic 79.09 119.91   # SOURCE3 3 1.9002
    angle_coeff 2280 harmonic 79.09 119.91   # SOURCE3 3 same_as_os-na-pc
    angle_coeff 2281 harmonic 64.81 105.88   # SOURCE3 2 0.0000
    angle_coeff 2282 harmonic 64.80 112.00   # SOURCE3 2 0.0000
    angle_coeff 2283 harmonic 65.33 109.64   # SOURCE3 3 4.1395
    angle_coeff 2284 harmonic 96.62 120.91   # SOURCE3 1
    angle_coeff 2285 harmonic 94.74 124.80   # SOURCE3 1
    angle_coeff 2286 harmonic 96.33 123.99   # SOURCE3 1
    angle_coeff 2287 harmonic 97.16 120.72   # SOURCE3 3 0.2407
    angle_coeff 2288 harmonic 97.16 120.72   # SOURCE3 3 same_as_p2-na-pc
    angle_coeff 2289 harmonic 74.88 122.47   # SOURCE3 1
    angle_coeff 2290 harmonic 76.31 122.50   # SOURCE3 1
    angle_coeff 2291 harmonic 75.69 121.85   # SOURCE3 1
    angle_coeff 2292 harmonic 76.68 121.75   # SOURCE3 1
    angle_coeff 2293 harmonic 76.38 121.88   # SOURCE3 1
    angle_coeff 2294 harmonic 93.72 126.60   # SOURCE3 1
    angle_coeff 2295 harmonic 95.76 123.32   # SOURCE3 3 4.1781
    angle_coeff 2296 harmonic 95.76 123.32   # SOURCE3 3 same_as_p3-na-pc
    angle_coeff 2297 harmonic 97.06 124.60   # SOURCE3 1
    angle_coeff 2298 harmonic 97.33 122.69   # SOURCE3 3 3.6738
    angle_coeff 2299 harmonic 97.33 122.69   # SOURCE3 3 same_as_p5-na-pc
    angle_coeff 2300 harmonic 78.22 118.52   # SOURCE3 1 0.0000
    angle_coeff 2301 harmonic 97.62 120.78   # SOURCE3 27 1.6457
    angle_coeff 2302 harmonic 75.52 121.51   # SOURCE3 3 2.7242
    angle_coeff 2303 harmonic 76.99 121.55   # SOURCE3 3 2.7065
    angle_coeff 2304 harmonic 76.17 121.47   # SOURCE3 3 1.0668
    angle_coeff 2305 harmonic 77.28 121.08   # SOURCE3 3 1.8942
    angle_coeff 2306 harmonic 76.97 121.20   # SOURCE3 3 1.9295
    angle_coeff 2307 harmonic 97.62 120.78   # SOURCE3 27 same_as_pc-na-pc
    angle_coeff 2308 harmonic 75.52 121.51   # SOURCE3 3 same_as_pc-na-s4
    angle_coeff 2309 harmonic 76.99 121.55   # SOURCE3 3 same_as_pc-na-s6
    angle_coeff 2310 harmonic 76.17 121.47   # SOURCE3 3 same_as_pc-na-s
    angle_coeff 2311 harmonic 77.28 121.08   # SOURCE3 3 same_as_pc-na-sh
    angle_coeff 2312 harmonic 76.97 121.20   # SOURCE3 3 same_as_pc-na-ss
    angle_coeff 2313 harmonic 122.69 78.25   # SOURCE3 1 0.0000
    angle_coeff 2314 harmonic 58.05 124.20   # SOURCE3 1
    angle_coeff 2315 harmonic 62.00 112.86   # SOURCE3 1
    angle_coeff 2316 harmonic 62.16 111.92   # SOURCE3 1 0.0000
    angle_coeff 2317 harmonic 60.51 123.20   # SOURCE3 1
    angle_coeff 2318 harmonic 61.44 119.10   # SOURCE3 1 0.0000
    angle_coeff 2319 harmonic 60.38 124.60   # SOURCE3 1
    angle_coeff 2320 harmonic 61.63 118.79   # SOURCE3 1 0.0000
    angle_coeff 2321 harmonic 58.55 126.00   # SOURCE3 1
    angle_coeff 2322 harmonic 62.52 112.49   # SOURCE3 1 0.0000
    angle_coeff 2323 harmonic 62.90 113.24   # SOURCE3 2 6.6084
    angle_coeff 2324 harmonic 60.51 123.20   # SOURCE3 1
    angle_coeff 2325 harmonic 68.59 115.86   # SOURCE3 46 1.1645
    angle_coeff 2326 harmonic 68.01 118.04   # SOURCE4 58 0.7819
    angle_coeff 2327 harmonic 68.01 118.04   # SOURCE4 58 same as ca-nb-cp
    angle_coeff 2328 harmonic 69.37 118.89   # SOURCE3 10 0.6031
    angle_coeff 2329 harmonic 68.79 121.11   # SOURCE4 12 0.4315
    angle_coeff 2330 harmonic 70.44 121.04   # SOURCE3 1 0.0000
    angle_coeff 2331 harmonic 66.59 116.20   # SOURCE3 1 0.0000
    angle_coeff 2332 harmonic 61.85 120.77   # SOURCE3 5 2.6390
    angle_coeff 2333 harmonic 62.07 118.19   # SOURCE3 1
    angle_coeff 2334 harmonic 62.34 118.19   # SOURCE3 1 same_as_br-n-cd
    angle_coeff 2335 harmonic 62.34 118.19   # SOURCE3 1 0.0000
    angle_coeff 2336 harmonic 73.52 102.69   # SOURCE3 1
    angle_coeff 2337 harmonic 65.90 118.88   # SOURCE3 1
    angle_coeff 2338 harmonic 67.02 118.88   # SOURCE3 1 same_as_c1-n-cd
    angle_coeff 2339 harmonic 67.02 118.88   # SOURCE3 1 0.0000
    angle_coeff 2340 harmonic 65.18 116.75   # SOURCE3 1 0.0000
    angle_coeff 2341 harmonic 63.06 119.98   # SOURCE4 23 2.3373
    angle_coeff 2342 harmonic 64.88 116.54   # SOURCE3 1
    angle_coeff 2343 harmonic 65.85 116.54   # SOURCE3 1 same_as_c2-n-cd
    angle_coeff 2344 harmonic 65.85 116.54   # SOURCE3 1 0.0000
    angle_coeff 2345 harmonic 47.33 118.36   # SOURCE4 40 1.8005
    angle_coeff 2346 harmonic 63.13 115.56   # SOURCE4 392 2.0191
    angle_coeff 2347 harmonic 62.76 119.96   # SOURCE4 165 2.0808
    angle_coeff 2348 harmonic 63.33 121.00   # CORR 267
    angle_coeff 2349 harmonic 63.33 121.00   # CORR 267
    angle_coeff 2350 harmonic 62.51 117.11   # SOURCE4 49 1.0344
    angle_coeff 2351 harmonic 46.04 116.78   # SOURCE3 39 2.1985
    angle_coeff 2352 harmonic 64.89 121.68   # SOURCE4 52 1.3175
    angle_coeff 2353 harmonic 66.40 114.82   # SOURCE4 9 0.7008
    angle_coeff 2354 harmonic 66.97 115.21   # CORR 48
    angle_coeff 2355 harmonic 66.97 115.21   # CORR 48
    angle_coeff 2356 harmonic 66.88 113.05   # SOURCE4 31 0.8144
    angle_coeff 2357 harmonic 66.99 112.65   # SOURCE4 16 1.5399
    angle_coeff 2358 harmonic 60.53 121.27   # SOURCE4 5 1.1298
    angle_coeff 2359 harmonic 64.31 117.39   # SOURCE4 39 1.6465
    angle_coeff 2360 harmonic 66.19 114.06   # CORR 34
    angle_coeff 2361 harmonic 66.19 114.06   # CORR 34
    angle_coeff 2362 harmonic 57.24 117.72   # SOURCE3 1
    angle_coeff 2363 harmonic 64.62 114.92   # SOURCE3 1
    angle_coeff 2364 harmonic 47.36 115.94   # SOURCE4 537 1.8890
    angle_coeff 2365 harmonic 56.58 119.30   # SOURCE3 1
    angle_coeff 2366 harmonic 65.72 122.17   # SOURCE4 5 0.2545
    angle_coeff 2367 harmonic 64.15 122.98   # SOURCE3 1
    angle_coeff 2368 harmonic 66.30 118.54   # SOURCE4 21 0.3399
    angle_coeff 2369 harmonic 66.33 119.31   # SOURCE4 16 0.3168
    angle_coeff 2370 harmonic 68.25 114.36   # CORR 6
    angle_coeff 2371 harmonic 68.25 114.36   # CORR 6
    angle_coeff 2372 harmonic 66.60 116.45   # SOURCE3 1
    angle_coeff 2373 harmonic 79.60 112.32   # SOURCE3 1
    angle_coeff 2374 harmonic 74.22 125.11   # SOURCE3 1
    angle_coeff 2375 harmonic 59.97 118.40   # SOURCE3 1
    angle_coeff 2376 harmonic 62.01 117.32   # SOURCE3 1
    angle_coeff 2377 harmonic 62.15 116.60   # SOURCE3 1
    angle_coeff 2378 harmonic 68.47 117.04   # SOURCE3 1 0.0000
    angle_coeff 2379 harmonic 65.09 122.15   # SOURCE3 9 5.1016
    angle_coeff 2380 harmonic 63.92 121.35   # SOURCE3 54 2.3808
    angle_coeff 2381 harmonic 67.60 109.51   # SOURCE3 9 5.4142
    angle_coeff 2382 harmonic 65.33 127.14   # SOURCE4 514 2.0111
    angle_coeff 2383 harmonic 64.29 123.71   # SOURCE3 10 3.8159
    angle_coeff 2384 harmonic 70.73 109.95   # SOURCE3 1
    angle_coeff 2385 harmonic 72.43 104.94   # CORR 437
    angle_coeff 2386 harmonic 73.68 104.69   # CORR 2
    angle_coeff 2387 harmonic 74.57 102.74   # CORR 14
    angle_coeff 2388 harmonic 73.08 104.48   # CORR 10
    angle_coeff 2389 harmonic 67.84 116.29   # SOURCE3 1
    angle_coeff 2390 harmonic 65.24 124.19   # SOURCE3 57 2.2262
    angle_coeff 2391 harmonic 66.11 120.66   # CORR 2
    angle_coeff 2392 harmonic 68.80 108.92   # SOURCE3 11 0.3167
    angle_coeff 2393 harmonic 70.50 104.34   # CORR 6
    angle_coeff 2394 harmonic 71.08 105.67   # CORR 1240
    angle_coeff 2395 harmonic 66.18 120.48   # CORR 138
    angle_coeff 2396 harmonic 57.67 117.72   # SOURCE3 1 same_as_cd-n-cl
    angle_coeff 2397 harmonic 73.38 102.97   # SOURCE3 1 0.0000
    angle_coeff 2398 harmonic 72.54 107.94   # SOURCE3 6 1.4052
    angle_coeff 2399 harmonic 65.24 124.19   # SOURCE3 57 2.2262
    angle_coeff 2400 harmonic 68.53 117.28   # CORR 17
    angle_coeff 2401 harmonic 69.66 117.19   # CORR 64
    angle_coeff 2402 harmonic 74.24 103.73   # SOURCE3 122 2.3292
    angle_coeff 2403 harmonic 71.99 107.88   # CORR 355
    angle_coeff 2404 harmonic 73.04 104.66   # CORR 116
    angle_coeff 2405 harmonic 70.36 108.15   # CORR 45
    angle_coeff 2406 harmonic 62.21 131.83   # SOURCE4 146 1.3048
    angle_coeff 2407 harmonic 65.61 114.92   # SOURCE3 1 same_as_cd-n-f
    angle_coeff 2408 harmonic 47.99 119.14   # CORR 276
    angle_coeff 2409 harmonic 56.61 119.30   # SOURCE3 1 same_as_cd-n-i
    angle_coeff 2410 harmonic 58.34 116.35   # SOURCE4 11 0.6829
    angle_coeff 2411 harmonic 70.09 110.87   # SOURCE3 1 same_as_cd-n-n2
    angle_coeff 2412 harmonic 66.53 121.37   # SOURCE3 1 same_as_cd-n-n
    angle_coeff 2413 harmonic 67.87 117.57   # SOURCE3 1 same_as_cd-n-na
    angle_coeff 2414 harmonic 70.08 112.03   # CORR 14
    angle_coeff 2415 harmonic 67.30 117.52   # SOURCE3 1 same_as_cd-n-nh
    angle_coeff 2416 harmonic 66.40 115.92   # SOURCE3 1 same_as_cd-n-no
    angle_coeff 2417 harmonic 70.07 120.54   # SOURCE3 1 same_as_cd-n-o
    angle_coeff 2418 harmonic 67.32 118.15   # SOURCE3 1 same_as_cd-n-oh
    angle_coeff 2419 harmonic 68.06 115.56   # SOURCE3 1 same_as_cd-n-os
    angle_coeff 2420 harmonic 80.17 112.32   # SOURCE3 1 same_as_cd-n-p2
    angle_coeff 2421 harmonic 74.70 125.11   # SOURCE3 1 same_as_cd-n-p3
    angle_coeff 2422 harmonic 78.11 121.00   # SOURCE3 1 same_as_cd-n-p5
    angle_coeff 2423 harmonic 60.34 118.40   # SOURCE3 1 same_as_cd-n-s4
    angle_coeff 2424 harmonic 62.48 117.32   # SOURCE3 1 same_as_cd-n-s6
    angle_coeff 2425 harmonic 60.78 118.29   # SOURCE3 1 same_as_cd-n-s
    angle_coeff 2426 harmonic 61.64 119.13   # SOURCE3 1 same_as_cd-n-sh
    angle_coeff 2427 harmonic 62.62 116.60   # SOURCE3 2 same_as_cd-n-ss
    angle_coeff 2428 harmonic 64.22 122.07   # SOURCE4 11 1.9478
    angle_coeff 2429 harmonic 72.26 94.23   # SOURCE4 270 1.3777
    angle_coeff 2430 harmonic 68.80 108.92   # SOURCE3 11 same_as_cc-n-cc
    angle_coeff 2431 harmonic 57.67 117.72   # SOURCE3 1 0.0000
    angle_coeff 2432 harmonic 65.61 114.92   # SOURCE3 1 0.0000
    angle_coeff 2433 harmonic 47.99 119.14   # CORR 276
    angle_coeff 2434 harmonic 56.61 119.30   # SOURCE3 1 0.0000
    angle_coeff 2435 harmonic 70.09 110.87   # SOURCE3 1 0.0000
    angle_coeff 2436 harmonic 66.53 121.37   # SOURCE3 1 0.0000
    angle_coeff 2437 harmonic 67.87 117.57   # SOURCE3 1 0.0000
    angle_coeff 2438 harmonic 70.08 112.03   # CORR 14
    angle_coeff 2439 harmonic 67.30 117.52   # SOURCE3 1 0.0000
    angle_coeff 2440 harmonic 66.40 115.92   # SOURCE3 1 0.0000
    angle_coeff 2441 harmonic 70.07 120.54   # SOURCE3 1 0.0000
    angle_coeff 2442 harmonic 67.32 118.15   # SOURCE3 1 0.0000
    angle_coeff 2443 harmonic 68.06 115.56   # SOURCE3 1 0.0000
    angle_coeff 2444 harmonic 80.17 112.32   # SOURCE3 1 0.0000
    angle_coeff 2445 harmonic 74.70 125.11   # SOURCE3 1 0.0000
    angle_coeff 2446 harmonic 78.11 121.00   # SOURCE3 1 0.0000
    angle_coeff 2447 harmonic 60.34 118.40   # SOURCE3 1 0.0000
    angle_coeff 2448 harmonic 62.48 117.32   # SOURCE3 1 0.0000
    angle_coeff 2449 harmonic 60.78 118.29   # SOURCE3 1 0.0000
    angle_coeff 2450 harmonic 61.64 119.13   # SOURCE3 1 0.0000
    angle_coeff 2451 harmonic 62.62 116.60   # SOURCE3 2 1.8318
    angle_coeff 2452 harmonic 64.70 111.89   # CORR 152
    angle_coeff 2453 harmonic 68.30 108.63   # SOURCE3 3 4.6785
    angle_coeff 2454 harmonic 64.70 111.89   # CORR 152
    angle_coeff 2455 harmonic 49.21 118.46   # SOURCE3 157 2.4094
    angle_coeff 2456 harmonic 56.34 120.38   # SOURCE3 5 2.1600
    angle_coeff 2457 harmonic 54.70 111.69   # SOURCE3 1 0.0000
    angle_coeff 2458 harmonic 68.06 120.59   # SOURCE3 9 3.2410
    angle_coeff 2459 harmonic 67.13 120.43   # SOURCE3 5 0.9481
    angle_coeff 2460 harmonic 68.85 112.32   # SOURCE3 5 1.2622
    angle_coeff 2461 harmonic 68.18 118.42   # SOURCE3 10 2.8922
    angle_coeff 2462 harmonic 68.25 119.20   # SOURCE3 11 2.3032
    angle_coeff 2463 harmonic 75.97 105.47   # SOURCE3 6 0.6349
    angle_coeff 2464 harmonic 67.16 125.19   # CORR 84
    angle_coeff 2465 harmonic 73.11 111.29   # CORR 61
    angle_coeff 2466 harmonic 67.16 125.19   # CORR 84
    angle_coeff 2467 harmonic 74.42 107.22   # SOURCE3 3 0.4707
    angle_coeff 2468 harmonic 68.02 117.81   # SOURCE4 21 1.5935
    angle_coeff 2469 harmonic 66.47 118.16   # SOURCE3 4 5.4870
    angle_coeff 2470 harmonic 71.64 118.90   # SOURCE3 9 5.4085
    angle_coeff 2471 harmonic 69.53 113.39   # SOURCE3 6 1.3345
    angle_coeff 2472 harmonic 69.60 113.14   # SOURCE3 7 3.0839
    angle_coeff 2473 harmonic 76.53 124.56   # SOURCE3 8 3.6907
    angle_coeff 2474 harmonic 75.82 122.54   # SOURCE3 9 4.4802
    angle_coeff 2475 harmonic 76.84 123.44   # SOURCE3 1 0.0000
    angle_coeff 2476 harmonic 76.23 128.50   # SOURCE4 6 0.5353
    angle_coeff 2477 harmonic 77.00 122.23   # SOURCE3 3 2.8787
    angle_coeff 2478 harmonic 77.00 122.23   # SOURCE3 3 same_as_c-n-pc
    angle_coeff 2479 harmonic 60.09 120.41   # SOURCE3 4 3.1760
    angle_coeff 2480 harmonic 60.86 125.01   # SOURCE4 13 1.6314
    angle_coeff 2481 harmonic 59.04 126.55   # SOURCE3 3 4.3365
    angle_coeff 2482 harmonic 61.87 119.54   # SOURCE3 4 1.7681
    angle_coeff 2483 harmonic 61.97 120.37   # SOURCE3 7 1.4450
    angle_coeff 2484 harmonic 60.91 124.81   # SOURCE4 51 1.0517
    angle_coeff 2485 harmonic 46.26 118.58   # SOURCE4 5 0.3288
    angle_coeff 2486 harmonic 97.40 54.04   # SOURCE3 1 0.0000
    angle_coeff 2487 harmonic 45.34 119.00   # SOURCE4 65 1.3840
    angle_coeff 2488 harmonic 67.60 109.51   # SOURCE3 9 same_as_c3-nc-cd
    angle_coeff 2489 harmonic 70.73 109.95   # SOURCE3 1 same_as_ca-nc-ca
    angle_coeff 2490 harmonic 72.43 104.94   # CORR 437
    angle_coeff 2491 harmonic 73.68 104.69   # CORR 2
    angle_coeff 2492 harmonic 74.57 102.74   # CORR 14
    angle_coeff 2493 harmonic 73.55 108.41   # SOURCE4 9 0.1575
    angle_coeff 2494 harmonic 73.08 104.48   # CORR 10
    angle_coeff 2495 harmonic 67.84 116.29   # SOURCE3 1 same_as_ca-nc-ss
    angle_coeff 2496 harmonic 66.11 120.66   # CORR 2
    angle_coeff 2497 harmonic 66.18 120.48   # CORR 138
    angle_coeff 2498 harmonic 68.53 117.28   # CORR 17
    angle_coeff 2499 harmonic 71.08 105.67   # CORR 1240
    angle_coeff 2500 harmonic 69.66 117.19   # CORR 64
    angle_coeff 2501 harmonic 74.24 103.73   # SOURCE3 122 2.3292
    angle_coeff 2502 harmonic 71.99 107.88   # CORR 355
    angle_coeff 2503 harmonic 73.04 104.66   # CORR 116
    angle_coeff 2504 harmonic 70.36 108.15   # CORR 45
    angle_coeff 2505 harmonic 70.50 104.34   # CORR 6
    angle_coeff 2506 harmonic 73.38 102.97   # SOURCE3 1 same_as_cc-nc-na
    angle_coeff 2507 harmonic 72.54 107.94   # SOURCE3 6 1.4052
    angle_coeff 2508 harmonic 75.97 105.47   # SOURCE3 6 0.6349
    angle_coeff 2509 harmonic 73.11 111.29   # CORR 61
    angle_coeff 2510 harmonic 74.42 107.22   # SOURCE3 3 same_as_nd-nc-os
    angle_coeff 2511 harmonic 60.41 150.84   # CORR 9
    angle_coeff 2512 harmonic 66.00 140.00   # SOURCE2 1 0.0000
    angle_coeff 2513 harmonic 66.09 120.84   # CORR 55
    angle_coeff 2514 harmonic 67.33 118.17   # SOURCE3 3 1.2374
    angle_coeff 2515 harmonic 68.36 123.58   # SOURCE4 12 0.8560
    angle_coeff 2516 harmonic 74.56 113.31   # SOURCE3 1
    angle_coeff 2517 harmonic 69.17 110.86   # SOURCE3 7 4.5874
    angle_coeff 2518 harmonic 80.83 134.03   # SOURCE3 1
    angle_coeff 2519 harmonic 79.24 120.52   # SOURCE3 8 8.1381
    angle_coeff 2520 harmonic 80.57 117.75   # SOURCE3 5 0.8581
    angle_coeff 2521 harmonic 84.33 117.04   # SOURCE3 3 1.4398
    angle_coeff 2522 harmonic 60.95 111.98   # SOURCE3 3 0.4090
    angle_coeff 2523 harmonic 61.78 118.92   # CORR 9
    angle_coeff 2524 harmonic 65.56 121.98   # CORR 15
    angle_coeff 2525 harmonic 69.73 114.06   # CORR 11
    angle_coeff 2526 harmonic 69.69 115.12   # CORR 44
    angle_coeff 2527 harmonic 71.10 113.96   # SOURCE3 3 1.1253
    angle_coeff 2528 harmonic 83.08 118.09   # SOURCE3 1 0.0000
    angle_coeff 2529 harmonic 65.75 120.11   # SOURCE3 1 0.0000
    angle_coeff 2530 harmonic 67.85 118.53   # CORR 6
    angle_coeff 2531 harmonic 71.16 111.19   # SOURCE3 1 0.0000
    angle_coeff 2532 harmonic 72.26 112.16   # SOURCE3 1 0.0000
    angle_coeff 2533 harmonic 83.85 117.02   # SOURCE3 1 0.0000
    angle_coeff 2534 harmonic 67.15 116.28   # SOURCE3 1 0.0000
    angle_coeff 2535 harmonic 71.71 120.20   # SOURCE2 1 0.0000
    angle_coeff 2536 harmonic 73.16 113.39   # SOURCE3 1 0.0000
    angle_coeff 2537 harmonic 74.43 114.70   # SOURCE2 1 0.0000
    angle_coeff 2538 harmonic 84.75 119.57   # SOURCE3 1 0.0000
    angle_coeff 2539 harmonic 68.28 117.70   # SOURCE3 1 0.0000
    angle_coeff 2540 harmonic 61.66 116.05   # SOURCE4 6 1.2661
    angle_coeff 2541 harmonic 78.59 107.22   # SOURCE3 1
    angle_coeff 2542 harmonic 70.94 110.72   # SOURCE3 9 6.1488
    angle_coeff 2543 harmonic 78.09 114.10   # SOURCE3 1 0.0000
    angle_coeff 2544 harmonic 91.59 109.66   # SOURCE3 1
    angle_coeff 2545 harmonic 84.18 112.15   # SOURCE3 7 6.5273
    angle_coeff 2546 harmonic 83.20 115.97   # SOURCE3 3 1.9854
    angle_coeff 2547 harmonic 87.34 114.60   # SOURCE3 3 2.9261
    angle_coeff 2548 harmonic 71.27 115.90   # SOURCE3 1 0.0000
    angle_coeff 2549 harmonic 63.80 107.29   # SOURCE3 1 0.0000
    angle_coeff 2550 harmonic 65.46 111.21   # SOURCE3 1 0.0000
    angle_coeff 2551 harmonic 72.28 110.45   # SOURCE3 10 1.8535
    angle_coeff 2552 harmonic 85.32 114.39   # SOURCE3 6 4.0528
    angle_coeff 2553 harmonic 67.59 115.95   # SOURCE3 6 3.4604
    angle_coeff 2554 harmonic 76.91 124.09   # SOURCE3 2 8.7534
    angle_coeff 2555 harmonic 78.32 132.32   # SOURCE3 11 23.9559
    angle_coeff 2556 harmonic 86.11 110.62   # SOURCE3 1 0.0000
    angle_coeff 2557 harmonic 90.01 110.79   # SOURCE3 4 1.6818
    angle_coeff 2558 harmonic 71.99 117.19   # SOURCE3 2 0.0225
    angle_coeff 2559 harmonic 63.79 108.92   # SOURCE3 1 0.0000
    angle_coeff 2560 harmonic 66.05 111.34   # SOURCE3 1 0.0000
    angle_coeff 2561 harmonic 104.56 116.81   # SOURCE3 1 0.0000
    angle_coeff 2562 harmonic 100.10 128.35   # SOURCE3 1 0.0000
    angle_coeff 2563 harmonic 105.15 123.47   # SOURCE3 1 0.0000
    angle_coeff 2564 harmonic 80.48 112.12   # SOURCE3 1 0.0000
    angle_coeff 2565 harmonic 81.80 115.73   # SOURCE3 1 0.0000
    angle_coeff 2566 harmonic 83.52 115.73   # SOURCE3 1 0.0000
    angle_coeff 2567 harmonic 78.54 131.84   # SOURCE3 1 0.0000
    angle_coeff 2568 harmonic 86.30 116.18   # SOURCE3 4 3.7135
    angle_coeff 2569 harmonic 68.65 120.87   # SOURCE3 1 0.0000
    angle_coeff 2570 harmonic 63.66 112.96   # SOURCE3 1 0.0000
    angle_coeff 2571 harmonic 63.94 119.63   # SOURCE3 1 0.0000
    angle_coeff 2572 harmonic 60.41 150.84   # CORR 9
    angle_coeff 2573 harmonic 66.00 140.00   # SOURCE2 1 same_as_c1-ne-cg
    angle_coeff 2574 harmonic 66.09 120.84   # CORR 55
    angle_coeff 2575 harmonic 67.33 118.17   # SOURCE3 3 same_as_c2-ne-ce
    angle_coeff 2576 harmonic 74.56 113.31   # SOURCE3 1 same_as_c2-ne-n2
    angle_coeff 2577 harmonic 69.17 110.86   # SOURCE3 7 same_as_c2-ne-ne
    angle_coeff 2578 harmonic 80.83 134.03   # SOURCE3 1 same_as_c2-ne-p2
    angle_coeff 2579 harmonic 79.24 120.52   # SOURCE3 8 same_as_c2-ne-pe
    angle_coeff 2580 harmonic 80.57 117.75   # SOURCE3 5 same_as_c2-ne-px
    angle_coeff 2581 harmonic 84.33 117.04   # SOURCE3 3 same_as_c2-ne-py
    angle_coeff 2582 harmonic 60.95 111.98   # SOURCE3 3 same_as_c2-ne-sx
    angle_coeff 2583 harmonic 61.78 118.92   # CORR 9
    angle_coeff 2584 harmonic 65.56 121.98   # CORR 15
    angle_coeff 2585 harmonic 69.73 114.06   # CORR 11
    angle_coeff 2586 harmonic 69.69 115.12   # CORR 44
    angle_coeff 2587 harmonic 71.10 113.96   # SOURCE3 3 same_as_ca-ne-o
    angle_coeff 2588 harmonic 83.08 118.09   # SOURCE3 1 same_as_ca-ne-p2
    angle_coeff 2589 harmonic 65.75 120.11   # SOURCE3 1 same_as_ca-ne-s
    angle_coeff 2590 harmonic 67.85 118.53   # CORR 6
    angle_coeff 2591 harmonic 71.16 111.19   # SOURCE3 1 same_as_ce-ne-n2
    angle_coeff 2592 harmonic 72.26 112.16   # SOURCE3 1 same_as_ce-ne-o
    angle_coeff 2593 harmonic 83.85 117.02   # SOURCE3 1 same_as_ce-ne-p2
    angle_coeff 2594 harmonic 67.15 116.28   # SOURCE3 1 same_as_ce-ne-s
    angle_coeff 2595 harmonic 71.71 120.20   # SOURCE2 1 same_as_cg-ne-n1
    angle_coeff 2596 harmonic 73.16 113.39   # SOURCE3 1 same_as_cg-ne-n2
    angle_coeff 2597 harmonic 74.43 114.70   # SOURCE2 1 same_as_cg-ne-o
    angle_coeff 2598 harmonic 84.75 119.57   # SOURCE3 1 same_as_cg-ne-p2
    angle_coeff 2599 harmonic 68.28 117.70   # SOURCE3 1 same_as_cg-ne-s
    angle_coeff 2600 harmonic 67.90 102.98   # SOURCE3 1 0.0000
    angle_coeff 2601 harmonic 78.59 107.22   # SOURCE3 1 same_as_n2-ne-n2
    angle_coeff 2602 harmonic 70.94 110.72   # SOURCE3 9 same_as_n2-ne-ne
    angle_coeff 2603 harmonic 78.09 114.10   # SOURCE3 1 same_as_n2-ne-o
    angle_coeff 2604 harmonic 91.59 109.66   # SOURCE3 1 same_as_n2-ne-p2
    angle_coeff 2605 harmonic 84.18 112.15   # SOURCE3 7 same_as_n2-ne-pe
    angle_coeff 2606 harmonic 83.20 115.97   # SOURCE3 3 same_as_n2-ne-px
    angle_coeff 2607 harmonic 87.34 114.60   # SOURCE3 3 same_as_n2-ne-py
    angle_coeff 2608 harmonic 71.27 115.90   # SOURCE3 1 same_as_n2-ne-s
    angle_coeff 2609 harmonic 63.80 107.29   # SOURCE3 1 same_as_n2-ne-sx
    angle_coeff 2610 harmonic 65.46 111.21   # SOURCE3 1 same_as_n2-ne-sy
    angle_coeff 2611 harmonic 72.28 110.45   # SOURCE3 10 same_as_ne-ne-o
    angle_coeff 2612 harmonic 85.32 114.39   # SOURCE3 6 same_as_ne-ne-p2
    angle_coeff 2613 harmonic 67.59 115.95   # SOURCE3 6 same_as_ne-ne-s
    angle_coeff 2614 harmonic 76.91 124.09   # SOURCE3 2 same_as_o-ne-o
    angle_coeff 2615 harmonic 78.32 132.32   # SOURCE3 11 same_as_o-ne-pe
    angle_coeff 2616 harmonic 86.11 110.62   # SOURCE3 1 same_as_o-ne-px
    angle_coeff 2617 harmonic 90.01 110.79   # SOURCE3 4 same_as_o-ne-py
    angle_coeff 2618 harmonic 71.99 117.19   # SOURCE3 2 same_as_o-ne-s
    angle_coeff 2619 harmonic 63.79 108.92   # SOURCE3 1 same_as_o-ne-sx
    angle_coeff 2620 harmonic 66.05 111.34   # SOURCE3 1 same_as_o-ne-sy
    angle_coeff 2621 harmonic 104.56 116.81   # SOURCE3 1 same_as_p2-ne-pe
    angle_coeff 2622 harmonic 100.10 128.35   # SOURCE3 1 same_as_p2-ne-px
    angle_coeff 2623 harmonic 105.15 123.47   # SOURCE3 1 same_as_p2-ne-py
    angle_coeff 2624 harmonic 80.48 112.12   # SOURCE3 1 same_as_p2-ne-sx
    angle_coeff 2625 harmonic 81.80 115.73   # SOURCE3 1 same_as_p2-ne-sy
    angle_coeff 2626 harmonic 83.52 115.73   # SOURCE3 1 same_as_pe-ne-s
    angle_coeff 2627 harmonic 78.54 131.84   # SOURCE3 1 same_as_px-ne-s
    angle_coeff 2628 harmonic 86.30 116.18   # SOURCE3 4 same_as_py-ne-s
    angle_coeff 2629 harmonic 68.65 120.87   # SOURCE3 1 same_as_s-ne-s
    angle_coeff 2630 harmonic 63.66 112.96   # SOURCE3 1 same_as_s-ne-sx
    angle_coeff 2631 harmonic 63.94 119.63   # SOURCE3 1 same_as_s-ne-sy
    angle_coeff 2632 harmonic 67.09 106.27   # SOURCE3 1
    angle_coeff 2633 harmonic 62.04 111.88   # SOURCE3 1 0.0000
    angle_coeff 2634 harmonic 42.11 101.56   # SOURCE3 1 0.0000
    angle_coeff 2635 harmonic 68.33 116.98   # SOURCE3 1 0.0000
    angle_coeff 2636 harmonic 66.36 122.71   # SOURCE4 5 1.0077
    angle_coeff 2637 harmonic 66.22 122.36   # SOURCE3 3 1.2016
    angle_coeff 2638 harmonic 49.55 117.30   # SOURCE4 8 0.7120
    angle_coeff 2639 harmonic 65.54 124.50   # SOURCE4 43 1.7515
    angle_coeff 2640 harmonic 63.17 123.71   # SOURCE3 8 3.5348
    angle_coeff 2641 harmonic 64.59 127.34   # SOURCE4 97 2.4321
    angle_coeff 2642 harmonic 64.92 126.03   # CORR 11
    angle_coeff 2643 harmonic 64.92 126.03   # CORR 11
    angle_coeff 2644 harmonic 63.08 124.44   # SOURCE4 10 1.6817
    angle_coeff 2645 harmonic 49.62 114.89   # SOURCE4 1000 1.4571
    angle_coeff 2646 harmonic 68.36 120.00   # SOURCE4 33 1.1823
    angle_coeff 2647 harmonic 67.57 116.98   # SOURCE4 14 1.4183
    angle_coeff 2648 harmonic 66.09 125.63   # SOURCE4 7 0.7554
    angle_coeff 2649 harmonic 69.45 112.51   # SOURCE4 12 1.1687
    angle_coeff 2650 harmonic 69.27 112.93   # SOURCE4 6 0.3945
    angle_coeff 2651 harmonic 61.76 121.13   # SOURCE4 10 0.5133
    angle_coeff 2652 harmonic 63.53 114.44   # SOURCE4 523 2.1428
    angle_coeff 2653 harmonic 64.56 117.77   # SOURCE3 8 1.7521
    angle_coeff 2654 harmonic 64.17 119.23   # CORR 163
    angle_coeff 2655 harmonic 64.17 119.23   # CORR 163
    angle_coeff 2656 harmonic 63.47 119.92   # SOURCE4 20 1.8571
    angle_coeff 2657 harmonic 63.01 125.51   # SOURCE4 12 0.5177
    angle_coeff 2658 harmonic 46.46 114.95   # SOURCE3 19 2.4787
    angle_coeff 2659 harmonic 67.89 112.35   # SOURCE3 9 4.0058
    angle_coeff 2660 harmonic 67.10 111.71   # SOURCE4 6 2.4251
    angle_coeff 2661 harmonic 66.92 112.43   # SOURCE4 8 1.4219
    angle_coeff 2662 harmonic 77.12 123.35   # SOURCE3 1 0.0000
    angle_coeff 2663 harmonic 61.91 116.12   # SOURCE4 13 1.2830
    angle_coeff 2664 harmonic 64.34 127.46   # SOURCE3 2 0.0002
    angle_coeff 2665 harmonic 63.77 129.77   # CORR 38
    angle_coeff 2666 harmonic 63.77 129.77   # CORR 38
    angle_coeff 2667 harmonic 57.67 113.15   # SOURCE3 1 0.0000
    angle_coeff 2668 harmonic 63.11 123.63   # SOURCE4 36 0.5899
    angle_coeff 2669 harmonic 67.90 106.09   # SOURCE3 3 1.0660
    angle_coeff 2670 harmonic 49.08 116.13   # SOURCE4 1780 1.2853
    angle_coeff 2671 harmonic 55.55 117.83   # SOURCE3 1 0.0000
angle_coeff 2672 harmonic 69.37 117.13   # HF/6-31G* 1
    angle_coeff 2673 harmonic 67.82 121.11   # SOURCE4 19 0.9700
    angle_coeff 2674 harmonic 68.18 114.21   # SOURCE3 6 2.2412
    angle_coeff 2675 harmonic 68.56 108.94   # SOURCE3 5 0.6562
    angle_coeff 2676 harmonic 68.07 116.15   # SOURCE4 12 0.8135
    angle_coeff 2677 harmonic 68.58 114.54   # SOURCE3 8 0.7807
    angle_coeff 2678 harmonic 68.49 114.87   # SOURCE3 6 2.1432
    angle_coeff 2679 harmonic 69.19 113.92   # SOURCE3 4 2.9561
    angle_coeff 2680 harmonic 69.64 121.92   # SOURCE3 2 3.9630
    angle_coeff 2681 harmonic 69.15 112.80   # SOURCE3 1 0.0000
    angle_coeff 2682 harmonic 69.93 110.17   # SOURCE3 3 0.6448
    angle_coeff 2683 harmonic 77.99 125.27   # SOURCE3 8 5.1798
    angle_coeff 2684 harmonic 76.07 125.70   # SOURCE3 3 5.7796
    angle_coeff 2685 harmonic 77.43 124.01   # SOURCE3 3 2.5810
    angle_coeff 2686 harmonic 78.16 125.61   # SOURCE3 3 0.5287
    angle_coeff 2687 harmonic 62.13 115.62   # SOURCE3 3 0.3434
    angle_coeff 2688 harmonic 61.56 123.53   # SOURCE4 33 2.0385
    angle_coeff 2689 harmonic 59.38 122.54   # SOURCE3 3 2.7001
    angle_coeff 2690 harmonic 61.78 121.41   # SOURCE3 1 0.0000
    angle_coeff 2691 harmonic 61.75 121.50   # SOURCE3 3 2.6255
    angle_coeff 2692 harmonic 60.64 125.26   # SOURCE4 41 1.7517
    angle_coeff 2693 harmonic 63.09 123.72   # CORR 58
    angle_coeff 2694 harmonic 48.86 117.16   # SOURCE3 11 2.6137
    angle_coeff 2695 harmonic 68.23 119.66   # SOURCE4 5 1.3903
    angle_coeff 2696 harmonic 61.22 122.91   # SOURCE4 23 1.2029
    angle_coeff 2697 harmonic 63.09 123.72   # CORR 58
    angle_coeff 2698 harmonic 48.86 117.16   # SOURCE3 11 2.6137
    angle_coeff 2699 harmonic 48.38 115.62   # CORR 203
    angle_coeff 2700 harmonic 66.85 129.43   # CORR 2
    angle_coeff 2701 harmonic 63.58 112.97   # SOURCE4 7 1.0636
    angle_coeff 2702 harmonic 48.38 115.62   # CORR 203
    angle_coeff 2703 harmonic 66.85 129.43   # CORR 2
    angle_coeff 2704 harmonic 54.43 106.60   # SOURCE3 1
    angle_coeff 2705 harmonic 40.07 104.14   # SOURCE3 1 0.0000
    angle_coeff 2706 harmonic 86.53 62.02   # SOURCE4 45 0.6189
    angle_coeff 2707 harmonic 45.79 118.89   # SOURCE4 8 0.1391
    angle_coeff 2708 harmonic 48.79 121.24   # SOURCE4 40 0.5682
    angle_coeff 2709 harmonic 66.93 101.70   # SOURCE3 1 0.0000
    angle_coeff 2710 harmonic 49.80 101.23   # SOURCE3 1 0.0000
    angle_coeff 2711 harmonic 40.05 114.85   # SOURCE4 1108 2.0811
    angle_coeff 2712 harmonic 36.55 107.57   # SOURCE3 1 0.0000
angle_coeff 2713 harmonic 52.31 110.57   # HF/6-31G* 1
    angle_coeff 2714 harmonic 50.08 118.22   # SOURCE4 75 2.3319
    angle_coeff 2715 harmonic 50.05 109.12   # SOURCE3 5 2.3680
    angle_coeff 2716 harmonic 49.69 104.40   # SOURCE3 3 0.5056
    angle_coeff 2717 harmonic 50.89 107.96   # SOURCE4 16 1.2025
    angle_coeff 2718 harmonic 50.95 107.91   # SOURCE3 26 1.5528
    angle_coeff 2719 harmonic 50.32 110.64   # SOURCE4 8 1.3390
    angle_coeff 2720 harmonic 50.99 109.93   # SOURCE4 7 0.2027
    angle_coeff 2721 harmonic 52.99 116.45   # SOURCE3 2 0.6063
    angle_coeff 2722 harmonic 51.13 106.55   # SOURCE4 8 0.4590
    angle_coeff 2723 harmonic 51.51 104.76   # SOURCE3 3 0.4883
    angle_coeff 2724 harmonic 54.38 118.18   # SOURCE3 21 3.6927
    angle_coeff 2725 harmonic 53.06 116.19   # SOURCE3 3 3.0539
    angle_coeff 2726 harmonic 54.74 112.60   # SOURCE3 3 0.8237
    angle_coeff 2727 harmonic 55.35 115.26   # SOURCE3 3 0.9168
    angle_coeff 2728 harmonic 43.06 107.48   # SOURCE3 3 1.3960
    angle_coeff 2729 harmonic 40.81 114.37   # SOURCE3 1 0.0000
    angle_coeff 2730 harmonic 44.04 109.98   # SOURCE4 29 0.7478
    angle_coeff 2731 harmonic 43.27 112.25   # SOURCE3 1 0.0000
    angle_coeff 2732 harmonic 42.95 113.89   # SOURCE3 3 1.4030
    angle_coeff 2733 harmonic 43.28 111.23   # SOURCE4 62 1.1413
    angle_coeff 2734 harmonic 59.80 115.82   # SOURCE3 1
angle_coeff 2735 harmonic 75.13 106.71   # HF/6-31G* 1
    angle_coeff 2736 harmonic 70.76 117.50   # SOURCE3 2 1.1907
    angle_coeff 2737 harmonic 69.63 115.54   # SOURCE3 1 0.0000
    angle_coeff 2738 harmonic 70.40 126.06   # SOURCE3 1 0.0000
    angle_coeff 2739 harmonic 69.52 110.98   # SOURCE3 1 0.0000
    angle_coeff 2740 harmonic 68.15 108.36   # SOURCE3 1 0.0000
    angle_coeff 2741 harmonic 70.14 112.01   # SOURCE3 1 0.0000
    angle_coeff 2742 harmonic 39.73 117.85   # SOURCE3 15 2.3694
    angle_coeff 2743 harmonic 70.07 112.23   # SOURCE3 1 0.0000
    angle_coeff 2744 harmonic 36.08 117.24   # SOURCE3 2 0.4435
    angle_coeff 2745 harmonic 49.62 118.33   # SOURCE3 5 2.2377
    angle_coeff 2746 harmonic 48.69 117.22   # SOURCE4 37 1.3737
    angle_coeff 2747 harmonic 48.90 112.68   # SOURCE3 3 1.9746
    angle_coeff 2748 harmonic 50.14 113.12   # SOURCE3 7 3.2954
    angle_coeff 2749 harmonic 50.40 113.55   # SOURCE3 8 1.9324
    angle_coeff 2750 harmonic 50.74 115.24   # SOURCE4 10 0.4966
    angle_coeff 2751 harmonic 49.74 113.13   # SOURCE4 12 1.2125
    angle_coeff 2752 harmonic 48.71 110.11   # SOURCE3 1 0.0000
    angle_coeff 2753 harmonic 53.83 116.32   # SOURCE3 2 0.0175
    angle_coeff 2754 harmonic 72.07 115.63   # SOURCE3 1
    angle_coeff 2755 harmonic 50.33 110.71   # SOURCE4 46 1.1278
    angle_coeff 2756 harmonic 72.07 108.55   # SOURCE3 1 0.0000
    angle_coeff 2757 harmonic 50.52 109.82   # SOURCE4 12 0.6996
    angle_coeff 2758 harmonic 52.51 118.05   # SOURCE3 7 3.0564
    angle_coeff 2759 harmonic 50.93 119.63   # SOURCE3 2 0.0000
    angle_coeff 2760 harmonic 53.00 115.71   # SOURCE3 1 0.0000
    angle_coeff 2761 harmonic 54.50 113.20   # SOURCE4 6 1.0341
    angle_coeff 2762 harmonic 41.18 112.46   # SOURCE3 1 0.0000
    angle_coeff 2763 harmonic 41.14 114.92   # SOURCE3 2 0.0260
    angle_coeff 2764 harmonic 43.06 112.18   # SOURCE4 6 0.6101
    angle_coeff 2765 harmonic 42.19 114.91   # SOURCE3 1 0.0000
    angle_coeff 2766 harmonic 42.36 115.60   # SOURCE3 3 0.6414
    angle_coeff 2767 harmonic 43.02 112.34   # SOURCE4 38 0.6039
    angle_coeff 2768 harmonic 72.15 106.27   # SOURCE3 1
    angle_coeff 2769 harmonic 72.24 128.06   # SOURCE3 1
    angle_coeff 2770 harmonic 72.41 105.27   # SOURCE3 1
    angle_coeff 2771 harmonic 98.07 127.33   # SOURCE3 2 2.7857
    angle_coeff 2772 harmonic 96.03 125.08   # SOURCE3 1
    angle_coeff 2773 harmonic 104.72 112.76   # SOURCE3 1
    angle_coeff 2774 harmonic 62.56 112.39   # SOURCE3 1
    angle_coeff 2775 harmonic 62.35 120.27   # SOURCE3 1
    angle_coeff 2776 harmonic 62.26 119.00   # SOURCE3 1
    angle_coeff 2777 harmonic 59.67 118.73   # SOURCE3 1 0.0000
    angle_coeff 2778 harmonic 62.19 119.25   # SOURCE3 1
    angle_coeff 2779 harmonic 60.66 118.20   # SOURCE3 1 0.0000
    angle_coeff 2780 harmonic 70.16 116.89   # SOURCE3 1 0.0000
    angle_coeff 2781 harmonic 68.02 117.94   # SOURCE3 1 0.0000
    angle_coeff 2782 harmonic 68.42 112.69   # SOURCE3 1 0.0000
    angle_coeff 2783 harmonic 69.61 117.38   # SOURCE3 1 0.0000
    angle_coeff 2784 harmonic 71.04 116.41   # CORR 2
    angle_coeff 2785 harmonic 80.69 117.21   # CORR 2
    angle_coeff 2786 harmonic 80.42 117.21   # CORR 2
    angle_coeff 2787 harmonic 71.04 116.41   # CORR 2
    angle_coeff 2788 harmonic 80.69 117.21   # CORR 2
    angle_coeff 2789 harmonic 80.42 117.21   # CORR 2
    angle_coeff 2790 harmonic 69.10 115.18   # SOURCE3 1 0.0000
    angle_coeff 2791 harmonic 69.89 114.62   # SOURCE3 1 0.0000
    angle_coeff 2792 harmonic 68.52 108.66   # SOURCE3 1 0.0000
    angle_coeff 2793 harmonic 58.48 113.19   # SOURCE3 2 0.0000
    angle_coeff 2794 harmonic 71.34 116.63   # SOURCE3 6 0.0000
    angle_coeff 2795 harmonic 69.87 116.87   # SOURCE3 8 0.4200
    angle_coeff 2796 harmonic 66.96 116.56   # SOURCE3 6 0.3959
    angle_coeff 2797 harmonic 68.74 118.10   # SOURCE3 10 1.1524
    angle_coeff 2798 harmonic 70.34 117.52   # SOURCE4 198 0.6255
    angle_coeff 2799 harmonic 57.30 115.08   # SOURCE3 2 0.0000
    angle_coeff 2800 harmonic 67.10 115.26   # SOURCE3 1
    angle_coeff 2801 harmonic 55.31 115.49   # SOURCE3 2 0.0000
    angle_coeff 2802 harmonic 72.05 107.26   # SOURCE3 1 0.0000
    angle_coeff 2803 harmonic 54.60 116.31   # SOURCE3 2 0.0000
angle_coeff 2804 harmonic 73.78 115.00   # HF/6-31G* 1
    angle_coeff 2805 harmonic 65.79 115.10   # SOURCE2 2 2.4000
    angle_coeff 2806 harmonic 72.01 115.56   # SOURCE3 6 0.6427
    angle_coeff 2807 harmonic 72.87 109.00   # SOURCE3 2 0.0000
    angle_coeff 2808 harmonic 72.24 115.49   # SOURCE3 18 0.5640
    angle_coeff 2809 harmonic 74.08 115.71   # SOURCE3 8 0.4811
    angle_coeff 2810 harmonic 71.67 115.41   # SOURCE3 8 0.3748
    angle_coeff 2811 harmonic 59.92 112.38   # SOURCE3 4 0.0000
    angle_coeff 2812 harmonic 73.39 128.61   # SOURCE3 3 1.0626
    angle_coeff 2813 harmonic 77.15 125.13   # SOURCE4 461 0.7605
    angle_coeff 2814 harmonic 74.09 114.70   # SOURCE3 2 0.0000
    angle_coeff 2815 harmonic 73.71 114.01   # SOURCE3 8 0.9778
    angle_coeff 2816 harmonic 82.07 117.38   # SOURCE3 20 0.8083
    angle_coeff 2817 harmonic 77.73 116.78   # SOURCE3 6 0.4929
    angle_coeff 2818 harmonic 76.69 116.64   # SOURCE3 6 0.0089
    angle_coeff 2819 harmonic 78.18 116.69   # SOURCE3 8 0.4507
    angle_coeff 2820 harmonic 57.15 114.49   # SOURCE3 6 0.5674
    angle_coeff 2821 harmonic 57.79 114.39   # SOURCE3 6 0.8311
    angle_coeff 2822 harmonic 64.05 119.81   # SOURCE3 4 0.0042
    angle_coeff 2823 harmonic 62.94 116.10   # SOURCE3 2 0.0000
    angle_coeff 2824 harmonic 62.27 115.58   # SOURCE3 6 0.5860
    angle_coeff 2825 harmonic 72.28 106.53   # SOURCE3 1 0.0000
    angle_coeff 2826 harmonic 98.03 119.62   # SOURCE3 1
    angle_coeff 2827 harmonic 100.67 108.73   # SOURCE3 3 0.2591
    angle_coeff 2828 harmonic 102.85 108.55   # SOURCE3 1
    angle_coeff 2829 harmonic 108.79 99.99   # SOURCE3 1
    angle_coeff 2830 harmonic 97.64 119.62   # SOURCE3 1 0.0000
    angle_coeff 2831 harmonic 97.64 119.62   # SOURCE3 1 same_as_pc-n-pc
    angle_coeff 2832 harmonic 61.03 113.75   # SOURCE3 1 0.0000
    angle_coeff 2833 harmonic 61.82 119.68   # SOURCE3 1 0.0000
    angle_coeff 2834 harmonic 61.53 119.03   # SOURCE3 1 0.0000
    angle_coeff 2835 harmonic 58.48 126.00   # SOURCE3 1
    angle_coeff 2836 harmonic 62.06 118.49   # SOURCE3 1 0.0000
    angle_coeff 2837 harmonic 42.15 101.60   # SOURCE3 1 0.0000
    angle_coeff 2838 harmonic 50.20 108.76   # SOURCE3 1 0.0000
    angle_coeff 2839 harmonic 49.91 108.98   # SOURCE3 6 2.2379
    angle_coeff 2840 harmonic 47.09 108.16   # SOURCE3 42 1.3034
    angle_coeff 2841 harmonic 48.85 109.47   # SOURCE3 7 1.0405
    angle_coeff 2842 harmonic 49.96 107.06   # CORR 117
    angle_coeff 2843 harmonic 49.96 107.06   # CORR 117
    angle_coeff 2844 harmonic 49.85 106.95   # CORR 34
    angle_coeff 2845 harmonic 49.85 106.95   # CORR 34
    angle_coeff 2846 harmonic 51.19 107.37   # SOURCE3 34 1.6830
    angle_coeff 2847 harmonic 40.51 102.40   # SOURCE2 1 0.0000
    angle_coeff 2848 harmonic 49.64 106.17   # SOURCE3 3 0.0644
    angle_coeff 2849 harmonic 47.62 107.32   # SOURCE4 5 0.4955
    angle_coeff 2850 harmonic 48.47 96.80   # SOURCE2 1 0.0000
    angle_coeff 2851 harmonic 41.93 104.80   # SOURCE2 1 0.0000
    angle_coeff 2852 harmonic 35.67 107.98   # SOURCE3 2 0.0000
angle_coeff 2853 harmonic 52.55 107.81   # HF/6-31G* 1
    angle_coeff 2854 harmonic 50.57 102.74   # SOURCE3 9 2.1286
    angle_coeff 2855 harmonic 50.61 102.33   # SOURCE3 5 1.2591
    angle_coeff 2856 harmonic 49.44 106.63   # SOURCE3 3 0.2770
    angle_coeff 2857 harmonic 50.46 101.03   # SOURCE3 6 1.4086
    angle_coeff 2858 harmonic 50.24 103.71   # SOURCE3 9 1.2590
    angle_coeff 2859 harmonic 49.97 102.42   # SOURCE4 15 0.6819
    angle_coeff 2860 harmonic 50.31 102.17   # SOURCE3 1 0.0000
    angle_coeff 2861 harmonic 47.26 100.87   # SOURCE3 1
    angle_coeff 2862 harmonic 49.34 98.72   # SOURCE3 2 0.0000
    angle_coeff 2863 harmonic 49.58 99.69   # SOURCE4 18 0.3384
    angle_coeff 2864 harmonic 55.87 109.45   # SOURCE3 8 3.3491
    angle_coeff 2865 harmonic 53.84 110.64   # SOURCE3 3 0.5191
    angle_coeff 2866 harmonic 55.27 110.19   # SOURCE3 4 0.2372
    angle_coeff 2867 harmonic 55.88 110.14   # SOURCE3 92 3.8033
    angle_coeff 2868 harmonic 56.18 110.73   # SOURCE3 79 1.7835
    angle_coeff 2869 harmonic 42.77 106.76   # SOURCE4 9 0.4035
    angle_coeff 2870 harmonic 40.86 100.15   # SOURCE3 2 0.0000
    angle_coeff 2871 harmonic 45.46 109.20   # SOURCE3 13 0.1856
    angle_coeff 2872 harmonic 42.97 106.24   # SOURCE3 2 0.0661
    angle_coeff 2873 harmonic 43.10 107.06   # SOURCE3 4 0.9967
    angle_coeff 2874 harmonic 44.20 106.41   # SOURCE4 33 0.3729
    angle_coeff 2875 harmonic 65.08 110.63   # SOURCE3 1 0.0000
    angle_coeff 2876 harmonic 66.99 115.02   # SOURCE3 1 0.0000
    angle_coeff 2877 harmonic 64.47 113.39   # SOURCE3 1 0.0000
    angle_coeff 2878 harmonic 65.95 113.14   # SOURCE3 6 2.1932
    angle_coeff 2879 harmonic 64.21 112.09   # SOURCE3 7 4.1809
    angle_coeff 2880 harmonic 65.43 113.59   # SOURCE3 1 0.0000
    angle_coeff 2881 harmonic 64.91 118.13   # SOURCE3 1 0.0000
    angle_coeff 2882 harmonic 68.21 103.85   # SOURCE3 4 0.6297
    angle_coeff 2883 harmonic 68.35 102.77   # SOURCE3 1 0.0000
    angle_coeff 2884 harmonic 77.31 126.37   # SOURCE4 7 1.7939
    angle_coeff 2885 harmonic 63.08 108.13   # SOURCE3 1 0.0000
    angle_coeff 2886 harmonic 62.39 112.45   # SOURCE4 1293 1.6468
    angle_coeff 2887 harmonic 62.27 117.97   # SOURCE4 2495 1.4576
    angle_coeff 2888 harmonic 62.50 117.33   # CORR 248
    angle_coeff 2889 harmonic 62.50 117.33   # CORR 248
    angle_coeff 2890 harmonic 62.79 116.05   # CORR 37
    angle_coeff 2891 harmonic 62.79 116.05   # CORR 37
    angle_coeff 2892 harmonic 56.20 110.50   # SOURCE2 1 0.0000
    angle_coeff 2893 harmonic 61.67 115.65   # SOURCE4 5 0.2390
    angle_coeff 2894 harmonic 54.88 113.70   # SOURCE3 1 0.0000
angle_coeff 2895 harmonic 66.31 113.50   # HF/6-31G* 1
    angle_coeff 2896 harmonic 65.92 108.12   # SOURCE3 7 0.3048
    angle_coeff 2897 harmonic 64.52 110.28   # SOURCE4 14 1.9026
    angle_coeff 2898 harmonic 64.88 110.50   # SOURCE3 3 0.5426
    angle_coeff 2899 harmonic 65.40 109.52   # SOURCE4 14 0.6827
    angle_coeff 2900 harmonic 64.54 109.91   # SOURCE3 9 1.8268
    angle_coeff 2901 harmonic 64.80 112.73   # SOURCE3 2 1.0358
    angle_coeff 2902 harmonic 64.80 112.73   # SOURCE3 2 same_as_c3-os-nc
    angle_coeff 2903 harmonic 65.22 109.69   # SOURCE4 8 0.1662
    angle_coeff 2904 harmonic 63.89 113.80   # SOURCE4 42 0.2726
    angle_coeff 2905 harmonic 65.62 103.00   # SOURCE3 1 0.0000
    angle_coeff 2906 harmonic 65.24 107.97   # SOURCE4 11 0.4333
    angle_coeff 2907 harmonic 65.89 105.01   # SOURCE3 7 0.6328
    angle_coeff 2908 harmonic 80.24 115.47   # SOURCE3 8 2.6374
    angle_coeff 2909 harmonic 76.51 115.97   # SOURCE3 3 0.3597
    angle_coeff 2910 harmonic 77.59 117.48   # SOURCE3 4 0.3850
    angle_coeff 2911 harmonic 78.48 118.00   # SOURCE3 31 1.2882
    angle_coeff 2912 harmonic 78.07 117.80   # SOURCE3 16 0.9654
    angle_coeff 2913 harmonic 61.32 111.50   # SOURCE3 6 1.4240
    angle_coeff 2914 harmonic 63.21 115.79   # SOURCE4 60 1.2588
    angle_coeff 2915 harmonic 59.28 109.55   # SOURCE3 1 0.0000
    angle_coeff 2916 harmonic 61.67 112.82   # SOURCE3 1 0.0000
    angle_coeff 2917 harmonic 60.74 113.19   # SOURCE3 3 0.2455
    angle_coeff 2918 harmonic 63.31 119.95   # SOURCE4 107 1.6535
    angle_coeff 2919 harmonic 67.21 106.65   # CORR 62
    angle_coeff 2920 harmonic 67.21 106.65   # CORR 62
    angle_coeff 2921 harmonic 65.39 112.19   # SOURCE3 1 0.0000
    angle_coeff 2922 harmonic 66.47 108.24   # SOURCE3 1 0.0000
    angle_coeff 2923 harmonic 66.09 113.68   # SOURCE3 2
    angle_coeff 2924 harmonic 66.09 113.68   # SOURCE3 2
    angle_coeff 2925 harmonic 77.96 123.42   # SOURCE4 54 1.1358
    angle_coeff 2926 harmonic 63.95 116.97   # SOURCE4 15 0.9514
    angle_coeff 2927 harmonic 64.91 118.02   # SOURCE4 7 0.3666
    angle_coeff 2928 harmonic 63.63 115.14   # SOURCE3 17 1.8967
    angle_coeff 2929 harmonic 64.54 120.64   # SOURCE4 7 1.5114
    angle_coeff 2930 harmonic 63.75 120.87   # SOURCE4 257 1.7209
    angle_coeff 2931 harmonic 64.15 119.62   # SOURCE3 5 6.0675
    angle_coeff 2932 harmonic 67.27 106.69   # CORR 252
    angle_coeff 2933 harmonic 63.80 118.62   # SOURCE4 14 1.9764
    angle_coeff 2934 harmonic 64.15 119.62   # SOURCE3 5 6.0675
    angle_coeff 2935 harmonic 65.51 111.66   # SOURCE3 28 4.1343
    angle_coeff 2936 harmonic 68.12 107.23   # SOURCE3 6 2.7507
    angle_coeff 2937 harmonic 66.27 108.47   # SOURCE3 2 0.0000
    angle_coeff 2938 harmonic 59.85 119.59   # SOURCE3 1 0.0000
    angle_coeff 2939 harmonic 71.75 91.10   # SOURCE3 2 0.0155
    angle_coeff 2940 harmonic 67.27 106.69   # CORR 252
    angle_coeff 2941 harmonic 65.51 111.66   # SOURCE3 28 4.1343
    angle_coeff 2942 harmonic 68.12 107.23   # SOURCE3 6 2.7507
    angle_coeff 2943 harmonic 66.27 108.47   # SOURCE3 2 same_as_cc-os-os
    angle_coeff 2944 harmonic 59.85 119.59   # SOURCE3 1 same_as_cc-os-ss
    angle_coeff 2945 harmonic 52.29 110.76   # SOURCE3 2 0.0000
    angle_coeff 2946 harmonic 66.95 112.08   # SOURCE4 6 0.1154
    angle_coeff 2947 harmonic 66.83 112.10   # SOURCE4 6 0.6163
    angle_coeff 2948 harmonic 66.50 110.50   # SOURCE3 1 0.0000
    angle_coeff 2949 harmonic 66.25 110.28   # SOURCE4 10 1.3612
    angle_coeff 2950 harmonic 78.89 122.10   # SOURCE4 5 0.5870
    angle_coeff 2951 harmonic 61.85 113.49   # SOURCE3 1 0.0000
    angle_coeff 2952 harmonic 85.27 61.82   # SOURCE4 107 0.1793
    angle_coeff 2953 harmonic 88.98 59.99   # SOURCE3 1 0.0000
    angle_coeff 2954 harmonic 90.38 56.52   # SOURCE3 2 0.0000
    angle_coeff 2955 harmonic 68.81 93.40   # SOURCE2 2 1.4000
    angle_coeff 2956 harmonic 63.94 103.30   # SOURCE2 1 0.0000
    angle_coeff 2957 harmonic 63.94 109.50   # SOURCE2 1 0.0000
    angle_coeff 2958 harmonic 58.06 115.67   # SOURCE3 1 0.0000
angle_coeff 2959 harmonic 70.28 117.79   # HF/6-31G* 1
    angle_coeff 2960 harmonic 68.76 106.83   # SOURCE3 1 0.0000
    angle_coeff 2961 harmonic 66.63 111.30   # SOURCE4 7 0.5651
    angle_coeff 2962 harmonic 67.76 104.88   # SOURCE3 1 0.0000
    angle_coeff 2963 harmonic 65.66 114.68   # SOURCE3 1 0.0000
    angle_coeff 2964 harmonic 66.10 109.59   # SOURCE3 1 0.0000
    angle_coeff 2965 harmonic 64.75 104.34   # SOURCE3 1 0.0000
    angle_coeff 2966 harmonic 68.17 110.40   # SOURCE2 1 0.0000
    angle_coeff 2967 harmonic 63.38 110.97   # SOURCE3 1 0.0000
    angle_coeff 2968 harmonic 68.17 110.40   # SOURCE2 1 same_as_nc-os-nc
    angle_coeff 2969 harmonic 63.38 110.97   # SOURCE3 1 same_as_nc-os-ss
    angle_coeff 2970 harmonic 67.81 108.29   # SOURCE3 1 0.0000
    angle_coeff 2971 harmonic 68.08 108.31   # SOURCE3 1 0.0000
    angle_coeff 2972 harmonic 66.40 111.86   # SOURCE3 1 0.0000
    angle_coeff 2973 harmonic 65.87 113.62   # SOURCE4 5 0.0928
    angle_coeff 2974 harmonic 62.76 114.68   # SOURCE3 1 0.0000
    angle_coeff 2975 harmonic 103.59 120.02   # SOURCE3 1 0.0000
    angle_coeff 2976 harmonic 108.26 107.86   # SOURCE3 1 0.0000
    angle_coeff 2977 harmonic 96.17 121.22   # SOURCE3 1 0.0000
    angle_coeff 2978 harmonic 105.11 105.58   # SOURCE3 1 0.0000
    angle_coeff 2979 harmonic 99.18 126.25   # SOURCE3 1 0.0000
    angle_coeff 2980 harmonic 62.09 111.63   # SOURCE3 1 0.0000
    angle_coeff 2981 harmonic 64.77 119.07   # SOURCE3 2 0.4318
    angle_coeff 2982 harmonic 61.15 118.95   # SOURCE3 1 0.0000
    angle_coeff 2983 harmonic 56.98 118.08   # SOURCE3 1 0.0000
    angle_coeff 2984 harmonic 60.82 115.64   # SOURCE3 1 0.0000
    angle_coeff 2985 harmonic 40.68 108.60   # SOURCE3 1
    angle_coeff 2986 harmonic 39.43 102.32   # SOURCE3 2 0.0146
    angle_coeff 2987 harmonic 40.42 103.33   # SOURCE3 1 0.0000
    angle_coeff 2988 harmonic 39.43 110.87   # SOURCE3 1 0.0000
    angle_coeff 2989 harmonic 50.16 115.46   # SOURCE3 4 7.8622
    angle_coeff 2990 harmonic 40.59 110.52   # SOURCE3 1 0.0000
    angle_coeff 2991 harmonic 39.20 99.04   # SOURCE3 1
    angle_coeff 2992 harmonic 39.82 101.29   # SOURCE3 1
    angle_coeff 2993 harmonic 41.36 101.79   # SOURCE3 1
    angle_coeff 2994 harmonic 41.32 107.62   # SOURCE3 1
    angle_coeff 2995 harmonic 53.31 99.54   # SOURCE3 1
    angle_coeff 2996 harmonic 41.00 105.90   # SOURCE3 1
    angle_coeff 2997 harmonic 40.45 104.50   # SOURCE3 1
    angle_coeff 2998 harmonic 38.60 101.90   # SOURCE3 4 0.1132
    angle_coeff 2999 harmonic 38.79 101.95   # SOURCE3 1
    angle_coeff 3000 harmonic 35.61 102.72   # SOURCE3 2 0.0000
    angle_coeff 3001 harmonic 41.60 103.47   # SOURCE3 2 0.0136
    angle_coeff 3002 harmonic 30.13 97.19   # SOURCE3 3 0.0216
    angle_coeff 3003 harmonic 33.85 101.94   # SOURCE3 2 0.0368
    angle_coeff 3004 harmonic 43.20 99.88   # SOURCE3 1
    angle_coeff 3005 harmonic 41.99 101.80   # SOURCE3 1
    angle_coeff 3006 harmonic 39.07 98.26   # SOURCE3 6 0.1522
    angle_coeff 3007 harmonic 40.89 103.28   # SOURCE3 4 3.3113
    angle_coeff 3008 harmonic 40.54 103.99   # SOURCE3 8 1.6834
    angle_coeff 3009 harmonic 41.20 105.17   # SOURCE3 8 0.8263
    angle_coeff 3010 harmonic 41.91 97.97   # SOURCE3 3 0.4175
    angle_coeff 3011 harmonic 41.51 115.16   # SOURCE3 1
    angle_coeff 3012 harmonic 42.50 102.89   # SOURCE3 3 0.8191
    angle_coeff 3013 harmonic 43.35 102.12   # SOURCE3 4 0.8783
    angle_coeff 3014 harmonic 54.72 99.56   # SOURCE3 1
    angle_coeff 3015 harmonic 48.11 99.27   # SOURCE3 4 1.1590
    angle_coeff 3016 harmonic 48.19 96.94   # SOURCE3 1
    angle_coeff 3017 harmonic 48.01 97.61   # SOURCE3 1
    angle_coeff 3018 harmonic 38.27 95.15   # SOURCE3 1
    angle_coeff 3019 harmonic 38.35 95.51   # SOURCE3 1
    angle_coeff 3020 harmonic 42.19 105.53   # SOURCE3 1
    angle_coeff 3021 harmonic 40.19 101.49   # SOURCE3 3 0.0057
    angle_coeff 3022 harmonic 40.19 101.81   # SOURCE3 4 0.5883
    angle_coeff 3023 harmonic 37.36 99.30   # SOURCE3 1
    angle_coeff 3024 harmonic 40.30 100.82   # SOURCE3 1 0.0000
    angle_coeff 3025 harmonic 40.10 106.72   # SOURCE3 1 0.0000
    angle_coeff 3026 harmonic 40.68 101.34   # SOURCE3 1 0.0000
    angle_coeff 3027 harmonic 51.78 100.48   # SOURCE3 1 0.0000
    angle_coeff 3028 harmonic 40.04 105.68   # SOURCE3 1 0.0000
    angle_coeff 3029 harmonic 37.59 99.70   # SOURCE3 1
    angle_coeff 3030 harmonic 40.53 100.82   # SOURCE3 1
    angle_coeff 3031 harmonic 41.68 89.97   # SOURCE3 1
    angle_coeff 3032 harmonic 41.69 89.21   # SOURCE3 1
    angle_coeff 3033 harmonic 40.31 106.88   # SOURCE3 1
    angle_coeff 3034 harmonic 39.79 107.93   # SOURCE3 1
    angle_coeff 3035 harmonic 38.89 97.30   # SOURCE3 1
    angle_coeff 3036 harmonic 38.29 90.10   # SOURCE3 1
    angle_coeff 3037 harmonic 40.63 107.44   # SOURCE3 1
    angle_coeff 3038 harmonic 40.55 105.54   # SOURCE3 1
    angle_coeff 3039 harmonic 40.63 107.44   # SOURCE3 1 same_as_ce-p2-o
    angle_coeff 3040 harmonic 40.55 105.54   # SOURCE3 1 same_as_ce-p2-s
    angle_coeff 3041 harmonic 32.00 108.70   # SOURCE3 1
    angle_coeff 3042 harmonic 36.67 103.38   # SOURCE3 1 0.0000
    angle_coeff 3043 harmonic 36.00 110.57   # SOURCE3 1 0.0000
    angle_coeff 3044 harmonic 47.78 103.11   # SOURCE3 1 0.0000
    angle_coeff 3045 harmonic 36.62 110.11   # SOURCE3 1 0.0000
    angle_coeff 3046 harmonic 42.20 107.10   # SOURCE3 1
    angle_coeff 3047 harmonic 43.59 103.57   # SOURCE3 1 0.0000
    angle_coeff 3048 harmonic 43.81 110.61   # SOURCE3 1 0.0000
    angle_coeff 3049 harmonic 54.54 103.48   # SOURCE3 1 0.0000
    angle_coeff 3050 harmonic 41.15 114.71   # SOURCE3 2 5.2794
    angle_coeff 3051 harmonic 22.84 98.76   # SOURCE3 1
    angle_coeff 3052 harmonic 31.08 95.18   # SOURCE3 2 1.5708
    angle_coeff 3053 harmonic 32.08 95.54   # SOURCE3 19 4.7352
    angle_coeff 3054 harmonic 31.94 100.10   # SOURCE3 14 6.1290
    angle_coeff 3055 harmonic 31.94 100.10   # SOURCE3 14 same_as_hp-p2-ne
    angle_coeff 3056 harmonic 32.04 105.58   # SOURCE3 1 0.0000
    angle_coeff 3057 harmonic 38.16 101.88   # SOURCE3 27 12.9535
    angle_coeff 3058 harmonic 32.69 94.51   # SOURCE3 1 0.0000
    angle_coeff 3059 harmonic 33.66 89.07   # SOURCE3 1 0.0000
    angle_coeff 3060 harmonic 37.56 97.25   # SOURCE3 16 8.8916
    angle_coeff 3061 harmonic 37.56 97.25   # SOURCE3 16 same_as_hp-p2-pe
    angle_coeff 3062 harmonic 26.33 89.99   # SOURCE3 1 0.0000
    angle_coeff 3063 harmonic 30.26 102.52   # SOURCE3 1 0.0000
    angle_coeff 3064 harmonic 26.74 88.13   # SOURCE3 1 0.0000
    angle_coeff 3065 harmonic 35.75 104.16   # SOURCE3 1
    angle_coeff 3066 harmonic 34.63 101.77   # SOURCE3 1 0.0000
    angle_coeff 3067 harmonic 33.34 109.51   # SOURCE3 1 0.0000
    angle_coeff 3068 harmonic 46.22 102.63   # SOURCE3 1 0.0000
    angle_coeff 3069 harmonic 35.18 110.60   # SOURCE3 1 0.0000
angle_coeff 3070 harmonic 46.52 86.22   # HF/6-31G* 1
    angle_coeff 3071 harmonic 45.62 98.00   # SOURCE3 1
    angle_coeff 3072 harmonic 44.14 100.42   # SOURCE3 1
    angle_coeff 3073 harmonic 41.53 93.42   # SOURCE3 1 0.0000
    angle_coeff 3074 harmonic 42.63 102.03   # SOURCE3 1 0.0000
    angle_coeff 3075 harmonic 43.69 101.87   # SOURCE3 2 0.8491
    angle_coeff 3076 harmonic 43.64 98.12   # SOURCE3 1 0.0000
    angle_coeff 3077 harmonic 43.53 115.34   # SOURCE3 1
    angle_coeff 3078 harmonic 43.02 109.72   # SOURCE3 1 0.0000
    angle_coeff 3079 harmonic 45.35 102.29   # SOURCE3 1 0.0000
    angle_coeff 3080 harmonic 49.55 99.51   # SOURCE3 1 0.0000
    angle_coeff 3081 harmonic 48.48 101.73   # SOURCE3 1
    angle_coeff 3082 harmonic 50.50 93.68   # SOURCE3 1
    angle_coeff 3083 harmonic 38.89 97.83   # SOURCE3 1
    angle_coeff 3084 harmonic 38.99 98.14   # SOURCE3 1
    angle_coeff 3085 harmonic 42.45 112.94   # SOURCE3 1
    angle_coeff 3086 harmonic 41.75 100.82   # SOURCE3 1 0.0000
    angle_coeff 3087 harmonic 41.64 101.76   # SOURCE3 1 0.0000
    angle_coeff 3088 harmonic 42.10 106.30   # SOURCE3 1
    angle_coeff 3089 harmonic 44.16 106.83   # SOURCE3 1
    angle_coeff 3090 harmonic 55.78 100.58   # SOURCE3 1
    angle_coeff 3091 harmonic 43.18 105.75   # SOURCE3 1
    angle_coeff 3092 harmonic 39.61 88.80   # SOURCE3 1
    angle_coeff 3093 harmonic 40.67 101.36   # SOURCE3 1 0.0000
    angle_coeff 3094 harmonic 52.72 96.53   # SOURCE3 1 0.0000
    angle_coeff 3095 harmonic 40.06 104.98   # SOURCE3 1 0.0000
    angle_coeff 3096 harmonic 40.23 106.10   # SOURCE3 1
    angle_coeff 3097 harmonic 42.71 107.46   # SOURCE3 1 0.0000
    angle_coeff 3098 harmonic 41.81 108.15   # SOURCE3 1 0.0000
    angle_coeff 3099 harmonic 45.72 107.71   # SOURCE3 1
    angle_coeff 3100 harmonic 44.34 105.50   # SOURCE3 1
    angle_coeff 3101 harmonic 45.72 107.71   # SOURCE3 1 same_as_ne-p2-o
    angle_coeff 3102 harmonic 44.34 105.50   # SOURCE3 1 same_as_ne-p2-s
    angle_coeff 3103 harmonic 42.33 104.00   # SOURCE3 1
    angle_coeff 3104 harmonic 43.75 108.11   # SOURCE3 2 0.6773
    angle_coeff 3105 harmonic 53.77 107.73   # SOURCE3 3 3.1678
    angle_coeff 3106 harmonic 42.31 109.62   # SOURCE3 2 1.7725
    angle_coeff 3107 harmonic 43.55 98.85   # SOURCE3 1 0.0000
    angle_coeff 3108 harmonic 43.46 105.08   # SOURCE3 1 0.0000
    angle_coeff 3109 harmonic 42.08 98.20   # SOURCE3 1
    angle_coeff 3110 harmonic 43.42 104.87   # SOURCE3 1 0.0000
    angle_coeff 3111 harmonic 52.75 108.57   # SOURCE3 3 8.2121
    angle_coeff 3112 harmonic 41.76 109.06   # SOURCE3 2 5.4074
    angle_coeff 3113 harmonic 54.46 102.12   # SOURCE3 1 0.0000
    angle_coeff 3114 harmonic 41.20 112.34   # SOURCE3 1 0.0000
    angle_coeff 3115 harmonic 44.96 100.10   # SOURCE3 1
    angle_coeff 3116 harmonic 54.71 107.82   # SOURCE3 2 2.6708
    angle_coeff 3117 harmonic 43.05 109.75   # SOURCE3 1 0.0000
    angle_coeff 3118 harmonic 44.39 119.96   # SOURCE3 1
    angle_coeff 3119 harmonic 44.33 110.46   # SOURCE3 1 0.0000
    angle_coeff 3120 harmonic 45.59 108.81   # SOURCE3 1 0.0000
    angle_coeff 3121 harmonic 54.57 114.23   # SOURCE3 1
    angle_coeff 3122 harmonic 48.45 106.69   # SOURCE3 1 0.0000
    angle_coeff 3123 harmonic 48.42 104.37   # SOURCE3 1
    angle_coeff 3124 harmonic 48.37 104.49   # SOURCE3 1
    angle_coeff 3125 harmonic 46.73 145.96   # SOURCE3 1
    angle_coeff 3126 harmonic 46.73 145.96   # SOURCE3 1 same_as_o-p2-pe
    angle_coeff 3127 harmonic 37.68 106.59   # SOURCE3 1
    angle_coeff 3128 harmonic 38.12 105.04   # SOURCE3 1
    angle_coeff 3129 harmonic 42.77 117.42   # SOURCE3 1
    angle_coeff 3130 harmonic 40.81 109.60   # SOURCE3 1 0.0000
    angle_coeff 3131 harmonic 47.01 98.30   # SOURCE3 1
    angle_coeff 3132 harmonic 57.14 101.46   # SOURCE3 1 0.0000
    angle_coeff 3133 harmonic 40.89 109.60   # SOURCE3 1 0.0000
    angle_coeff 3134 harmonic 43.89 108.47   # SOURCE3 3 1.7065
    angle_coeff 3135 harmonic 57.57 97.40   # SOURCE3 1
    angle_coeff 3136 harmonic 64.09 101.73   # SOURCE3 1 0.0000
    angle_coeff 3137 harmonic 63.42 101.98   # SOURCE3 1
    angle_coeff 3138 harmonic 64.24 99.33   # SOURCE3 1
    angle_coeff 3139 harmonic 51.53 95.73   # SOURCE3 1
    angle_coeff 3140 harmonic 51.64 95.95   # SOURCE3 1
    angle_coeff 3141 harmonic 54.52 111.28   # SOURCE3 1
    angle_coeff 3142 harmonic 50.78 113.94   # SOURCE3 3 8.5009
    angle_coeff 3143 harmonic 59.88 101.00   # SOURCE3 1
    angle_coeff 3144 harmonic 48.09 113.28   # SOURCE3 2 6.7035
    angle_coeff 3145 harmonic 49.75 103.89   # SOURCE3 1
    angle_coeff 3146 harmonic 62.82 89.40   # SOURCE3 1
    angle_coeff 3147 harmonic 50.38 101.21   # SOURCE3 1
    angle_coeff 3148 harmonic 54.45 106.35   # SOURCE3 1
    angle_coeff 3149 harmonic 54.45 106.35   # SOURCE3 1 same_as_pe-p2-s
    angle_coeff 3150 harmonic 39.97 85.30   # SOURCE3 1
    angle_coeff 3151 harmonic 37.42 98.20   # SOURCE3 1
    angle_coeff 3152 harmonic 41.33 98.50   # SOURCE3 1
    angle_coeff 3153 harmonic 44.19 106.60   # SOURCE3 1
    angle_coeff 3154 harmonic 38.90 105.29   # SOURCE3 1
    angle_coeff 3155 harmonic 38.73 106.93   # SOURCE3 1
    angle_coeff 3156 harmonic 40.82 110.73   # SOURCE3 2 0.0232
    angle_coeff 3157 harmonic 40.27 114.14   # SOURCE3 4 5.9223
    angle_coeff 3158 harmonic 41.56 97.90   # SOURCE3 1
    angle_coeff 3159 harmonic 41.27 103.54   # SOURCE3 1 0.0000
    angle_coeff 3160 harmonic 26.94 96.36   # SOURCE3 4 0.6701
    angle_coeff 3161 harmonic 38.48 100.50   # SOURCE3 1 0.0000
    angle_coeff 3162 harmonic 40.73 96.90   # SOURCE2 1 0.0000
    angle_coeff 3163 harmonic 28.14 97.67   # SOURCE3 2 0.0000
    angle_coeff 3164 harmonic 37.32 101.77   # SOURCE3 3 0.0000
    angle_coeff 3165 harmonic 27.57 97.85   # SOURCE3 4 0.0000
    angle_coeff 3166 harmonic 37.51 99.66   # SOURCE3 40 0.9854
    angle_coeff 3167 harmonic 37.29 101.94   # SOURCE3 2 0.0000
    angle_coeff 3168 harmonic 35.74 99.89   # SOURCE3 1 0.0000
    angle_coeff 3169 harmonic 39.74 97.80   # SOURCE2 1 0.0000
    angle_coeff 3170 harmonic 27.47 97.66   # SOURCE3 9 0.4096
    angle_coeff 3171 harmonic 39.87 96.55   # SOURCE3 2 0.0000
    angle_coeff 3172 harmonic 39.28 101.18   # SOURCE3 10 2.2338
    angle_coeff 3173 harmonic 38.58 96.94   # SOURCE3 6 0.4815
    angle_coeff 3174 harmonic 38.78 101.77   # SOURCE3 12 2.4449
    angle_coeff 3175 harmonic 39.16 100.17   # SOURCE3 4 0.0554
    angle_coeff 3176 harmonic 38.65 104.50   # SOURCE3 2 0.0000
    angle_coeff 3177 harmonic 38.96 96.98   # SOURCE3 2 0.0000
    angle_coeff 3178 harmonic 39.33 111.67   # SOURCE3 28 5.3387
    angle_coeff 3179 harmonic 40.60 98.21   # SOURCE3 2 0.0000
    angle_coeff 3180 harmonic 40.25 99.53   # SOURCE3 3 1.7678
    angle_coeff 3181 harmonic 45.77 100.31   # SOURCE3 18 2.1836
    angle_coeff 3182 harmonic 45.65 100.90   # SOURCE3 10 2.7070
    angle_coeff 3183 harmonic 37.94 98.88   # SOURCE3 8 6.2235
    angle_coeff 3184 harmonic 37.62 101.18   # SOURCE3 12 6.4536
    angle_coeff 3185 harmonic 37.43 98.71   # SOURCE3 2 0.0000
    angle_coeff 3186 harmonic 37.44 99.37   # SOURCE3 2 0.0000
    angle_coeff 3187 harmonic 37.89 99.86   # SOURCE3 1 0.0000
    angle_coeff 3188 harmonic 27.74 97.50   # SOURCE3 2 0.0000
    angle_coeff 3189 harmonic 37.60 97.06   # SOURCE3 3 1.1490
    angle_coeff 3190 harmonic 36.51 100.90   # SOURCE3 1 0.0000
    angle_coeff 3191 harmonic 27.15 96.55   # SOURCE3 6 0.5223
    angle_coeff 3192 harmonic 33.91 102.82   # SOURCE3 1 0.0000
    angle_coeff 3193 harmonic 37.03 99.20   # SOURCE2 1 0.0000
    angle_coeff 3194 harmonic 25.67 96.30   # SOURCE3 3 0.6203
    angle_coeff 3195 harmonic 43.95 81.32   # SOURCE3 1 0.0000
    angle_coeff 3196 harmonic 27.54 95.20   # SOURCE2 1 0.0000
    angle_coeff 3197 harmonic 43.08 97.40   # SOURCE2 8 1.6636
    angle_coeff 3198 harmonic 30.56 96.41   # SOURCE3 2 0.0000
    angle_coeff 3199 harmonic 41.86 100.60   # SOURCE2 1 0.0000
    angle_coeff 3200 harmonic 42.42 102.20   # SOURCE2 1 0.0000
    angle_coeff 3201 harmonic 47.13 97.20   # SOURCE2 1 0.0000
    angle_coeff 3202 harmonic 22.02 95.52   # SOURCE3 44 2.4200
    angle_coeff 3203 harmonic 23.42 96.19   # SOURCE3 4 0.6454
angle_coeff 3204 harmonic 31.27 92.98   # HF/6-31G* 1
    angle_coeff 3205 harmonic 29.07 98.28   # SOURCE3 10 1.8860
    angle_coeff 3206 harmonic 30.10 94.46   # SOURCE3 2 0.0000
    angle_coeff 3207 harmonic 28.34 93.21   # SOURCE3 2 0.0000
    angle_coeff 3208 harmonic 29.47 95.15   # SOURCE3 2 0.0000
    angle_coeff 3209 harmonic 29.25 97.27   # SOURCE3 12 0.9318
    angle_coeff 3210 harmonic 30.16 94.10   # SOURCE3 2 0.0000
    angle_coeff 3211 harmonic 28.83 93.06   # SOURCE3 2 0.0000
    angle_coeff 3212 harmonic 32.01 101.02   # SOURCE3 2 0.0000
    angle_coeff 3213 harmonic 30.73 95.95   # SOURCE3 2 0.0000
    angle_coeff 3214 harmonic 30.39 97.35   # SOURCE3 6 2.8326
    angle_coeff 3215 harmonic 32.41 99.11   # SOURCE3 16 4.3022
    angle_coeff 3216 harmonic 32.07 95.52   # SOURCE3 4 0.0844
    angle_coeff 3217 harmonic 31.97 95.95   # SOURCE3 6 0.0489
    angle_coeff 3218 harmonic 32.08 95.54   # SOURCE3 2 0.0000
    angle_coeff 3219 harmonic 26.89 95.49   # SOURCE3 2 0.0000
    angle_coeff 3220 harmonic 27.38 92.95   # SOURCE3 2 0.0000
    angle_coeff 3221 harmonic 26.51 94.21   # SOURCE3 2 0.0000
    angle_coeff 3222 harmonic 26.59 94.61   # SOURCE3 2 0.0000
    angle_coeff 3223 harmonic 36.63 105.25   # SOURCE3 1 0.0000
angle_coeff 3224 harmonic 45.91 90.44   # HF/6-31G* 1
    angle_coeff 3225 harmonic 40.40 103.46   # SOURCE3 1 0.0000
    angle_coeff 3226 harmonic 39.27 113.80   # SOURCE3 1 0.0000
    angle_coeff 3227 harmonic 43.04 107.10   # SOURCE3 4 0.0000
    angle_coeff 3228 harmonic 43.13 98.36   # SOURCE3 1
    angle_coeff 3229 harmonic 38.45 100.53   # SOURCE3 1 0.0000
    angle_coeff 3230 harmonic 39.91 106.22   # SOURCE3 1
    angle_coeff 3231 harmonic 40.11 109.11   # SOURCE3 1 0.0000
    angle_coeff 3232 harmonic 40.04 104.58   # SOURCE3 1
    angle_coeff 3233 harmonic 42.80 104.99   # SOURCE3 4 0.0000
    angle_coeff 3234 harmonic 39.64 98.33   # SOURCE3 1 0.0000
    angle_coeff 3235 harmonic 42.77 104.48   # SOURCE3 1 0.0000
    angle_coeff 3236 harmonic 43.78 122.18   # SOURCE3 2 7.8556
    angle_coeff 3237 harmonic 45.09 116.74   # SOURCE3 14 0.7525
    angle_coeff 3238 harmonic 46.98 107.62   # SOURCE3 4 0.0000
    angle_coeff 3239 harmonic 38.63 110.70   # SOURCE3 4 0.7259
    angle_coeff 3240 harmonic 39.52 106.66   # SOURCE3 6 3.4017
    angle_coeff 3241 harmonic 42.11 106.65   # SOURCE3 1 0.0000
    angle_coeff 3242 harmonic 59.12 103.58   # SOURCE3 1 0.0000
    angle_coeff 3243 harmonic 57.00 105.31   # SOURCE3 4 3.5864
    angle_coeff 3244 harmonic 58.70 99.09   # SOURCE3 1
    angle_coeff 3245 harmonic 58.78 99.10   # SOURCE3 1 0.0000
    angle_coeff 3246 harmonic 39.08 98.26   # SOURCE3 1 0.0000
    angle_coeff 3247 harmonic 39.36 97.78   # SOURCE3 1 0.0000
    angle_coeff 3248 harmonic 36.56 107.58   # SOURCE3 1 0.0000
    angle_coeff 3249 harmonic 34.08 131.32   # SOURCE3 1
    angle_coeff 3250 harmonic 36.47 109.24   # SOURCE3 1 0.0000
    angle_coeff 3251 harmonic 41.07 110.41   # SOURCE3 1
    angle_coeff 3252 harmonic 37.80 124.80   # SOURCE3 1
    angle_coeff 3253 harmonic 37.13 104.21   # SOURCE3 1
    angle_coeff 3254 harmonic 27.68 99.50   # SOURCE3 2 0.0000
    angle_coeff 3255 harmonic 39.43 113.59   # SOURCE3 1
    angle_coeff 3256 harmonic 37.20 102.55   # SOURCE3 4 0.0192
    angle_coeff 3257 harmonic 39.09 103.17   # SOURCE3 1
    angle_coeff 3258 harmonic 39.50 102.37   # SOURCE3 1 0.0000
    angle_coeff 3259 harmonic 37.54 99.57   # SOURCE3 1 0.0000
    angle_coeff 3260 harmonic 38.98 103.26   # SOURCE3 1 0.0000
    angle_coeff 3261 harmonic 37.92 117.67   # SOURCE3 5 19.0404
    angle_coeff 3262 harmonic 39.33 102.79   # SOURCE3 1 0.0000
    angle_coeff 3263 harmonic 38.24 99.80   # SOURCE3 3 0.2151
    angle_coeff 3264 harmonic 38.77 116.44   # SOURCE3 25 2.6494
    angle_coeff 3265 harmonic 41.01 98.56   # SOURCE3 2 0.4558
    angle_coeff 3266 harmonic 41.17 98.01   # SOURCE3 2 0.0931
    angle_coeff 3267 harmonic 44.43 109.27   # SOURCE3 1
    angle_coeff 3268 harmonic 45.09 103.53   # SOURCE3 1 0.0000
    angle_coeff 3269 harmonic 48.14 102.12   # SOURCE3 1
    angle_coeff 3270 harmonic 44.64 104.15   # SOURCE3 1
    angle_coeff 3271 harmonic 37.43 100.17   # SOURCE3 2 0.0815
    angle_coeff 3272 harmonic 37.38 101.19   # SOURCE3 1
    angle_coeff 3273 harmonic 36.83 107.77   # SOURCE3 1
    angle_coeff 3274 harmonic 40.03 111.64   # SOURCE3 1
    angle_coeff 3275 harmonic 33.80 103.51   # SOURCE3 1 0.0000
    angle_coeff 3276 harmonic 36.03 116.53   # SOURCE3 2 0.0000
    angle_coeff 3277 harmonic 22.57 99.21   # SOURCE3 4 6.4572
angle_coeff 3278 harmonic 30.24 99.91   # HF/6-31G* 1
    angle_coeff 3279 harmonic 31.44 109.35   # SOURCE3 6 10.8284
    angle_coeff 3280 harmonic 31.40 98.96   # SOURCE3 4 0.0000
    angle_coeff 3281 harmonic 24.32 110.24   # SOURCE3 4 4.1081
    angle_coeff 3282 harmonic 38.53 113.22   # SOURCE3 2 6.7916
    angle_coeff 3283 harmonic 37.71 110.22   # SOURCE3 4 9.7726
angle_coeff 3284 harmonic 43.01 100.61   # HF/6-31G* 1
angle_coeff 3285 harmonic 42.53 114.59   # HF/6-31G* 1
    angle_coeff 3286 harmonic 41.52 102.54   # SOURCE3 1
    angle_coeff 3287 harmonic 40.81 120.28   # SOURCE3 1
    angle_coeff 3288 harmonic 42.50 113.27   # SOURCE3 1 0.0000
    angle_coeff 3289 harmonic 39.56 107.61   # SOURCE3 1 0.0000
    angle_coeff 3290 harmonic 45.17 110.60   # SOURCE3 5 1.3133
    angle_coeff 3291 harmonic 43.52 95.30   # SOURCE3 1 0.0000
    angle_coeff 3292 harmonic 41.87 115.86   # SOURCE3 3 3.2712
    angle_coeff 3293 harmonic 41.05 117.99   # SOURCE3 1 0.0000
    angle_coeff 3294 harmonic 39.42 114.69   # SOURCE3 3 0.1070
    angle_coeff 3295 harmonic 45.67 95.71   # SOURCE3 1 0.0000
    angle_coeff 3296 harmonic 45.06 117.22   # SOURCE3 6 2.7792
    angle_coeff 3297 harmonic 42.88 117.39   # SOURCE3 4 1.0083
    angle_coeff 3298 harmonic 43.10 116.67   # SOURCE3 4 0.6923
    angle_coeff 3299 harmonic 44.91 121.35   # SOURCE3 1
    angle_coeff 3300 harmonic 45.60 114.00   # SOURCE3 3 0.6663
    angle_coeff 3301 harmonic 48.81 116.43   # SOURCE3 1
    angle_coeff 3302 harmonic 46.05 109.76   # SOURCE3 1
    angle_coeff 3303 harmonic 35.77 112.19   # SOURCE3 1
    angle_coeff 3304 harmonic 35.22 113.89   # SOURCE3 1
    angle_coeff 3305 harmonic 37.34 112.78   # SOURCE3 2 0.0000
    angle_coeff 3306 harmonic 36.99 118.09   # SOURCE3 1
    angle_coeff 3307 harmonic 44.74 100.34   # SOURCE3 1 0.0000
    angle_coeff 3308 harmonic 37.47 116.14   # SOURCE3 4 1.0636
    angle_coeff 3309 harmonic 56.48 110.71   # SOURCE3 1
    angle_coeff 3310 harmonic 54.50 114.98   # SOURCE3 1 0.0000
    angle_coeff 3311 harmonic 61.44 107.38   # SOURCE3 1
    angle_coeff 3312 harmonic 55.76 107.78   # SOURCE3 1
    angle_coeff 3313 harmonic 36.61 96.24   # SOURCE3 1
    angle_coeff 3314 harmonic 35.22 102.36   # SOURCE3 1
    angle_coeff 3315 harmonic 38.45 98.81   # SOURCE3 1 0.0000
    angle_coeff 3316 harmonic 36.54 106.30   # SOURCE3 2 25.0119
    angle_coeff 3317 harmonic 37.60 104.41   # SOURCE3 1 0.0000
    angle_coeff 3318 harmonic 41.96 103.38   # SOURCE3 1 0.0000
    angle_coeff 3319 harmonic 39.04 114.65   # SOURCE3 3 1.0910
    angle_coeff 3320 harmonic 40.90 102.92   # SOURCE3 4 0.5468
    angle_coeff 3321 harmonic 38.83 102.89   # SOURCE3 1 0.0000
    angle_coeff 3322 harmonic 40.32 115.77   # SOURCE3 2 0.0000
    angle_coeff 3323 harmonic 41.43 102.79   # SOURCE3 2 0.0000
    angle_coeff 3324 harmonic 35.85 106.56   # SOURCE3 1
    angle_coeff 3325 harmonic 39.62 109.24   # SOURCE4 7 2.2628
    angle_coeff 3326 harmonic 40.04 101.69   # SOURCE3 1
    angle_coeff 3327 harmonic 39.90 103.34   # SOURCE3 1
    angle_coeff 3328 harmonic 36.95 106.23   # SOURCE3 14 2.6389
    angle_coeff 3329 harmonic 27.05 103.62   # SOURCE4 7 1.1616
    angle_coeff 3330 harmonic 40.01 102.76   # SOURCE3 1 0.0000
    angle_coeff 3331 harmonic 39.91 112.50   # SOURCE3 23 4.4203
    angle_coeff 3332 harmonic 40.83 101.56   # SOURCE3 17 2.1803
    angle_coeff 3333 harmonic 41.20 100.77   # SOURCE4 51 2.0928
    angle_coeff 3334 harmonic 44.32 106.27   # SOURCE3 1
    angle_coeff 3335 harmonic 37.51 113.40   # SOURCE3 4 2.0067
    angle_coeff 3336 harmonic 36.91 103.76   # SOURCE3 1 0.0000
    angle_coeff 3337 harmonic 37.10 107.53   # SOURCE3 1
    angle_coeff 3338 harmonic 39.95 113.98   # SOURCE3 1
    angle_coeff 3339 harmonic 41.04 101.77   # SOURCE3 1
    angle_coeff 3340 harmonic 40.86 103.75   # SOURCE3 1
    angle_coeff 3341 harmonic 35.96 104.16   # SOURCE3 1
    angle_coeff 3342 harmonic 33.77 103.70   # SOURCE2 1 0.0000
    angle_coeff 3343 harmonic 36.29 115.32   # SOURCE3 2 0.0000
    angle_coeff 3344 harmonic 37.85 102.44   # SOURCE3 2 0.0000
    angle_coeff 3345 harmonic 39.74 107.19   # SOURCE4 16 0.5711
    angle_coeff 3346 harmonic 39.73 102.12   # SOURCE3 1
    angle_coeff 3347 harmonic 42.49 99.96   # SOURCE2 4 0.9197
    angle_coeff 3348 harmonic 43.22 112.03   # SOURCE4 7 0.5178
    angle_coeff 3349 harmonic 43.33 101.98   # SOURCE3 2 0.0000
    angle_coeff 3350 harmonic 43.51 102.70   # SOURCE4 5 0.1524
    angle_coeff 3351 harmonic 38.09 117.40   # SOURCE2 1 0.0000
    angle_coeff 3352 harmonic 21.44 101.09   # SOURCE3 4 1.3036
angle_coeff 3353 harmonic 31.09 101.32   # HF/6-31G* 1
    angle_coeff 3354 harmonic 30.21 116.58   # SOURCE3 7 1.3282
    angle_coeff 3355 harmonic 30.57 101.45   # SOURCE3 5 0.9084
    angle_coeff 3356 harmonic 25.97 119.20   # SOURCE2 1 0.0000
    angle_coeff 3357 harmonic 35.88 107.17   # SOURCE3 1 0.0000
    angle_coeff 3358 harmonic 32.99 115.93   # SOURCE3 3 0.0415
    angle_coeff 3359 harmonic 35.44 102.26   # SOURCE3 4 1.9577
angle_coeff 3360 harmonic 45.78 101.55   # HF/6-31G* 1
angle_coeff 3361 harmonic 44.71 113.78   # HF/6-31G* 1
    angle_coeff 3362 harmonic 43.96 106.34   # SOURCE3 1
    angle_coeff 3363 harmonic 44.30 113.53   # SOURCE3 1
    angle_coeff 3364 harmonic 44.68 102.40   # SOURCE3 1
    angle_coeff 3365 harmonic 42.87 103.37   # SOURCE4 47 2.1009
    angle_coeff 3366 harmonic 42.63 104.02   # SOURCE4 5 1.8740
    angle_coeff 3367 harmonic 43.02 114.64   # SOURCE4 76 2.2728
    angle_coeff 3368 harmonic 43.43 104.18   # SOURCE3 6 0.4373
    angle_coeff 3369 harmonic 44.20 101.94   # SOURCE4 34 2.3553
    angle_coeff 3370 harmonic 39.05 117.12   # SOURCE4 7 0.7109
    angle_coeff 3371 harmonic 39.18 102.20   # SOURCE3 1 0.0000
    angle_coeff 3372 harmonic 41.10 109.78   # SOURCE3 5 2.7519
    angle_coeff 3373 harmonic 42.23 98.48   # SOURCE3 6 0.4104
    angle_coeff 3374 harmonic 43.31 94.55   # SOURCE3 2 0.0000
    angle_coeff 3375 harmonic 40.56 108.57   # SOURCE3 1 0.0000
    angle_coeff 3376 harmonic 42.38 113.43   # SOURCE3 11 0.8968
    angle_coeff 3377 harmonic 43.14 102.07   # SOURCE3 16 1.4144
    angle_coeff 3378 harmonic 43.20 103.06   # SOURCE3 4 0.7463
    angle_coeff 3379 harmonic 43.48 99.51   # SOURCE3 1 0.0000
    angle_coeff 3380 harmonic 42.11 118.91   # SOURCE3 3 1.3237
    angle_coeff 3381 harmonic 43.40 103.81   # SOURCE3 2 0.0000
    angle_coeff 3382 harmonic 44.39 100.51   # SOURCE3 2 0.0000
    angle_coeff 3383 harmonic 42.13 104.11   # SOURCE4 11 1.4088
    angle_coeff 3384 harmonic 41.80 103.09   # SOURCE3 1 0.0000
    angle_coeff 3385 harmonic 43.40 108.73   # SOURCE4 5 0.2571
    angle_coeff 3386 harmonic 43.17 102.44   # SOURCE3 4 0.0999
    angle_coeff 3387 harmonic 40.40 95.68   # SOURCE3 1 0.0000
    angle_coeff 3388 harmonic 40.49 112.75   # SOURCE3 4 3.3684
    angle_coeff 3389 harmonic 41.56 101.35   # SOURCE3 2 0.0000
    angle_coeff 3390 harmonic 41.69 101.70   # SOURCE3 4 0.0565
    angle_coeff 3391 harmonic 43.85 100.48   # SOURCE3 2 0.0000
    angle_coeff 3392 harmonic 44.58 102.45   # SOURCE3 39 2.4223
    angle_coeff 3393 harmonic 44.91 102.37   # SOURCE3 8 1.5063
    angle_coeff 3394 harmonic 48.24 103.53   # SOURCE3 1
    angle_coeff 3395 harmonic 47.55 103.83   # SOURCE3 13 0.4303
    angle_coeff 3396 harmonic 47.57 101.79   # SOURCE3 1
    angle_coeff 3397 harmonic 51.43 100.45   # SOURCE3 1
    angle_coeff 3398 harmonic 40.30 103.24   # SOURCE3 1
    angle_coeff 3399 harmonic 40.65 101.48   # SOURCE3 1
    angle_coeff 3400 harmonic 42.20 102.88   # SOURCE3 3 1.6044
    angle_coeff 3401 harmonic 40.01 101.41   # SOURCE3 2 0.0000
    angle_coeff 3402 harmonic 38.95 104.33   # SOURCE3 6 2.0112
    angle_coeff 3403 harmonic 46.01 115.80   # SOURCE3 17 5.7902
    angle_coeff 3404 harmonic 43.79 115.26   # SOURCE4 740 1.3004
    angle_coeff 3405 harmonic 44.01 116.09   # SOURCE3 35 3.2062
    angle_coeff 3406 harmonic 46.23 114.60   # SOURCE3 1
    angle_coeff 3407 harmonic 45.38 115.48   # SOURCE3 9 2.1084
    angle_coeff 3408 harmonic 45.07 114.66   # SOURCE3 1
    angle_coeff 3409 harmonic 49.11 113.44   # SOURCE3 1
    angle_coeff 3410 harmonic 39.61 110.23   # SOURCE3 1
    angle_coeff 3411 harmonic 39.34 111.75   # SOURCE3 1
    angle_coeff 3412 harmonic 40.46 116.94   # SOURCE3 3 2.9506
    angle_coeff 3413 harmonic 38.14 114.56   # SOURCE3 3 1.7645
    angle_coeff 3414 harmonic 45.37 101.77   # SOURCE4 243 2.0816
    angle_coeff 3415 harmonic 47.66 103.67   # SOURCE3 2 0.0000
    angle_coeff 3416 harmonic 50.58 104.48   # SOURCE3 1
    angle_coeff 3417 harmonic 40.57 102.52   # SOURCE3 1
    angle_coeff 3418 harmonic 40.69 101.89   # SOURCE3 1
    angle_coeff 3419 harmonic 37.95 112.46   # SOURCE3 6 2.7392
    angle_coeff 3420 harmonic 39.69 117.28   # SOURCE4 74 0.7542
    angle_coeff 3421 harmonic 39.51 104.59   # SOURCE3 2 0.0000
    angle_coeff 3422 harmonic 39.36 102.65   # SOURCE4 25 1.8093
    angle_coeff 3423 harmonic 57.39 107.14   # SOURCE3 1
    angle_coeff 3424 harmonic 57.04 105.23   # SOURCE3 3 5.1024
    angle_coeff 3425 harmonic 57.42 101.62   # SOURCE3 1
    angle_coeff 3426 harmonic 59.38 112.72   # SOURCE3 1
    angle_coeff 3427 harmonic 38.64 105.18   # SOURCE3 1
    angle_coeff 3428 harmonic 37.97 104.56   # SOURCE3 1 0.0000
    angle_coeff 3429 harmonic 37.22 107.13   # SOURCE3 1
    angle_coeff 3430 harmonic 39.37 114.13   # SOURCE3 1 0.0000
    angle_coeff 3431 harmonic 36.51 109.61   # SOURCE3 1 0.0000
    angle_coeff 3432 harmonic 42.75 90.80   # SOURCE3 3 2.3423
    angle_coeff 3433 harmonic 43.00 90.18   # SOURCE3 81 2.7619
    angle_coeff 3434 harmonic 42.75 90.80   # SOURCE3 3 same_as_cd-pc-n
    angle_coeff 3435 harmonic 43.00 90.18   # SOURCE3 81 same_as_cd-pc-na
    angle_coeff 3436 harmonic 38.84 101.44   # SOURCE3 3 0.7177
    angle_coeff 3437 harmonic 38.68 103.01   # SOURCE3 4 1.4470
    angle_coeff 3438 harmonic 40.85 104.03   # SOURCE3 3 3.8740
    angle_coeff 3439 harmonic 44.94 94.14   # SOURCE3 1
    angle_coeff 3440 harmonic 41.85 98.70   # SOURCE3 12 5.3383
    angle_coeff 3441 harmonic 41.06 115.16   # SOURCE3 2 0.0149
    angle_coeff 3442 harmonic 50.94 107.82   # SOURCE3 1
    angle_coeff 3443 harmonic 48.17 102.99   # SOURCE3 9 8.2860
    angle_coeff 3444 harmonic 51.11 97.37   # SOURCE3 4 0.6655
    angle_coeff 3445 harmonic 50.92 96.71   # SOURCE3 4 1.2755
    angle_coeff 3446 harmonic 41.06 111.16   # SOURCE3 2 0.0000
    angle_coeff 3447 harmonic 38.51 95.11   # SOURCE3 4 0.2676
    angle_coeff 3448 harmonic 37.78 95.56   # SOURCE3 2 0.0462
    angle_coeff 3449 harmonic 40.97 102.03   # SOURCE3 1 0.0000
    angle_coeff 3450 harmonic 40.40 106.88   # SOURCE3 2 0.0018
    angle_coeff 3451 harmonic 50.96 100.79   # SOURCE3 1 0.0000
    angle_coeff 3452 harmonic 48.44 99.70   # SOURCE3 2 0.0000
    angle_coeff 3453 harmonic 40.07 107.93   # SOURCE3 1 0.0000
    angle_coeff 3454 harmonic 38.58 97.30   # SOURCE3 3 0.0335
    angle_coeff 3455 harmonic 41.45 100.55   # SOURCE3 1 0.0000
    angle_coeff 3456 harmonic 40.47 107.44   # SOURCE3 1 0.0000
    angle_coeff 3457 harmonic 51.42 99.56   # SOURCE3 1 0.0000
    angle_coeff 3458 harmonic 40.65 105.54   # SOURCE3 1 0.0000
    angle_coeff 3459 harmonic 44.31 101.79   # SOURCE3 1 0.0000
    angle_coeff 3460 harmonic 43.57 107.62   # SOURCE3 1 0.0000
    angle_coeff 3461 harmonic 52.47 104.68   # SOURCE3 2 5.1435
    angle_coeff 3462 harmonic 42.30 108.60   # SOURCE3 4 2.6981
    angle_coeff 3463 harmonic 45.26 108.14   # SOURCE3 1
    angle_coeff 3464 harmonic 42.89 106.80   # SOURCE3 6 4.5981
    angle_coeff 3465 harmonic 44.34 115.39   # SOURCE3 1 0.0000
    angle_coeff 3466 harmonic 52.85 111.60   # SOURCE3 1
    angle_coeff 3467 harmonic 48.70 109.40   # SOURCE3 1 0.0000
    angle_coeff 3468 harmonic 50.28 110.30   # SOURCE3 3 6.0548
    angle_coeff 3469 harmonic 54.11 93.68   # SOURCE3 1 0.0000
    angle_coeff 3470 harmonic 42.94 114.84   # SOURCE3 3 3.6512
    angle_coeff 3471 harmonic 39.42 97.83   # SOURCE3 1 0.0000
    angle_coeff 3472 harmonic 38.61 98.14   # SOURCE3 1 0.0000
    angle_coeff 3473 harmonic 42.65 110.24   # SOURCE3 3 3.8478
    angle_coeff 3474 harmonic 52.77 104.48   # SOURCE3 2 7.1207
    angle_coeff 3475 harmonic 42.21 109.19   # SOURCE3 5 3.6708
    angle_coeff 3476 harmonic 44.01 119.96   # SOURCE3 1 0.0000
    angle_coeff 3477 harmonic 52.71 114.23   # SOURCE3 1 0.0000
    angle_coeff 3478 harmonic 42.47 145.96   # SOURCE3 1 0.0000
    angle_coeff 3479 harmonic 52.10 104.37   # SOURCE3 1 0.0000
    angle_coeff 3480 harmonic 51.64 104.49   # SOURCE3 1 0.0000
    angle_coeff 3481 harmonic 42.89 117.42   # SOURCE3 2 0.0426
    angle_coeff 3482 harmonic 38.02 106.59   # SOURCE3 1 0.0000
    angle_coeff 3483 harmonic 37.56 105.04   # SOURCE3 1 0.0000
    angle_coeff 3484 harmonic 65.58 98.24   # SOURCE3 1 0.0000
    angle_coeff 3485 harmonic 64.12 108.28   # SOURCE3 2 6.2959
    angle_coeff 3486 harmonic 62.99 110.87   # SOURCE3 3 8.1645
    angle_coeff 3487 harmonic 53.42 111.28   # SOURCE3 1 0.0000
    angle_coeff 3488 harmonic 51.26 95.73   # SOURCE3 1 0.0000
    angle_coeff 3489 harmonic 50.47 95.95   # SOURCE3 1 0.0000
    angle_coeff 3490 harmonic 50.40 107.91   # SOURCE3 2 1.5577
    angle_coeff 3491 harmonic 51.97 107.62   # SOURCE3 2 3.7266
    angle_coeff 3492 harmonic 51.36 108.73   # SOURCE3 3 5.3201
    angle_coeff 3493 harmonic 34.43 178.44   # SOURCE3 1 0.0000
    angle_coeff 3494 harmonic 38.72 108.32   # SOURCE3 2 3.0318
    angle_coeff 3495 harmonic 38.35 106.93   # SOURCE3 1 0.0000
    angle_coeff 3496 harmonic 38.84 101.44   # SOURCE3 3 same_as_c2-pe-ca
    angle_coeff 3497 harmonic 38.68 103.01   # SOURCE3 4 same_as_c2-pe-ce
    angle_coeff 3498 harmonic 40.85 104.03   # SOURCE3 3 same_as_c2-pe-cg
    angle_coeff 3499 harmonic 44.94 94.14   # SOURCE3 1 same_as_c2-pe-n2
    angle_coeff 3500 harmonic 41.85 98.70   # SOURCE3 12 same_as_c2-pe-ne
    angle_coeff 3501 harmonic 41.06 115.16   # SOURCE3 2 same_as_c2-pe-o
    angle_coeff 3502 harmonic 50.94 107.82   # SOURCE3 1 same_as_c2-pe-p2
    angle_coeff 3503 harmonic 48.17 102.99   # SOURCE3 9 same_as_c2-pe-pe
    angle_coeff 3504 harmonic 51.11 97.37   # SOURCE3 4 same_as_c2-pe-px
    angle_coeff 3505 harmonic 50.92 96.71   # SOURCE3 4 same_as_c2-pe-py
    angle_coeff 3506 harmonic 41.06 111.16   # SOURCE3 2 same_as_c2-pe-s
    angle_coeff 3507 harmonic 38.51 95.11   # SOURCE3 4 same_as_c2-pe-sx
    angle_coeff 3508 harmonic 37.78 95.56   # SOURCE3 2 same_as_c2-pe-sy
    angle_coeff 3509 harmonic 40.97 102.03   # SOURCE3 1 same_as_ca-pe-n2
    angle_coeff 3510 harmonic 40.40 106.88   # SOURCE3 2 same_as_ca-pe-o
    angle_coeff 3511 harmonic 50.96 100.79   # SOURCE3 1 same_as_ca-pe-p2
    angle_coeff 3512 harmonic 48.44 99.70   # SOURCE3 2 0.0000
    angle_coeff 3513 harmonic 40.07 107.93   # SOURCE3 1 same_as_ca-pe-s
    angle_coeff 3514 harmonic 38.58 97.30   # SOURCE3 3 same_as_c-pe-c2
    angle_coeff 3515 harmonic 41.45 100.55   # SOURCE3 1 same_as_ce-pe-n2
    angle_coeff 3516 harmonic 40.47 107.44   # SOURCE3 1 same_as_ce-pe-o
    angle_coeff 3517 harmonic 51.42 99.56   # SOURCE3 1 same_as_ce-pe-p2
    angle_coeff 3518 harmonic 40.65 105.54   # SOURCE3 1 same_as_ce-pe-s
    angle_coeff 3519 harmonic 44.31 101.79   # SOURCE3 1 same_as_cg-pe-n2
    angle_coeff 3520 harmonic 43.57 107.62   # SOURCE3 1 same_as_cg-pe-o
    angle_coeff 3521 harmonic 52.47 104.68   # SOURCE3 2 same_as_cg-pe-p2
    angle_coeff 3522 harmonic 42.30 108.60   # SOURCE3 4 same_as_cg-pe-s
    angle_coeff 3523 harmonic 45.26 108.14   # SOURCE3 1 same_as_n2-pe-n2
    angle_coeff 3524 harmonic 42.89 106.80   # SOURCE3 6 same_as_n2-pe-ne
    angle_coeff 3525 harmonic 44.34 115.39   # SOURCE3 1 same_as_n2-pe-o
    angle_coeff 3526 harmonic 52.85 111.60   # SOURCE3 1 same_as_n2-pe-p2
    angle_coeff 3527 harmonic 48.70 109.40   # SOURCE3 1 same_as_n2-pe-pe
    angle_coeff 3528 harmonic 50.28 110.30   # SOURCE3 3 same_as_n2-pe-px
    angle_coeff 3529 harmonic 54.11 93.68   # SOURCE3 1 same_as_n2-pe-py
    angle_coeff 3530 harmonic 42.94 114.84   # SOURCE3 3 same_as_n2-pe-s
    angle_coeff 3531 harmonic 39.42 97.83   # SOURCE3 1 same_as_n2-pe-sx
    angle_coeff 3532 harmonic 38.61 98.14   # SOURCE3 1 same_as_n2-pe-sy
    angle_coeff 3533 harmonic 42.65 110.24   # SOURCE3 3 same_as_ne-pe-o
    angle_coeff 3534 harmonic 52.77 104.48   # SOURCE3 2 same_as_ne-pe-p2
    angle_coeff 3535 harmonic 42.21 109.19   # SOURCE3 5 same_as_ne-pe-s
    angle_coeff 3536 harmonic 44.01 119.96   # SOURCE3 1 same_as_o-pe-o
    angle_coeff 3537 harmonic 52.71 114.23   # SOURCE3 1 same_as_o-pe-p2
    angle_coeff 3538 harmonic 42.47 145.96   # SOURCE3 1 same_as_o-pe-pe
    angle_coeff 3539 harmonic 52.10 104.37   # SOURCE3 1 same_as_o-pe-px
    angle_coeff 3540 harmonic 51.64 104.49   # SOURCE3 1 same_as_o-pe-py
    angle_coeff 3541 harmonic 42.89 117.42   # SOURCE3 2 same_as_o-pe-s
    angle_coeff 3542 harmonic 38.02 106.59   # SOURCE3 1 same_as_o-pe-sx
    angle_coeff 3543 harmonic 37.56 105.04   # SOURCE3 1 same_as_o-pe-sy
    angle_coeff 3544 harmonic 65.58 98.24   # SOURCE3 1 same_as_p2-pe-pe
    angle_coeff 3545 harmonic 64.12 108.28   # SOURCE3 2 same_as_p2-pe-px
    angle_coeff 3546 harmonic 62.99 110.87   # SOURCE3 3 same_as_p2-pe-py
    angle_coeff 3547 harmonic 53.42 111.28   # SOURCE3 1 same_as_p2-pe-s
    angle_coeff 3548 harmonic 51.26 95.73   # SOURCE3 1 same_as_p2-pe-sx
    angle_coeff 3549 harmonic 50.47 95.95   # SOURCE3 1 same_as_p2-pe-sy
    angle_coeff 3550 harmonic 50.40 107.91   # SOURCE3 2 same_as_pe-pe-s
    angle_coeff 3551 harmonic 51.97 107.62   # SOURCE3 2 same_as_px-pe-s
    angle_coeff 3552 harmonic 51.36 108.73   # SOURCE3 3 same_as_py-pe-s
    angle_coeff 3553 harmonic 34.43 178.44   # SOURCE3 1 same_as_s-pe-s
    angle_coeff 3554 harmonic 38.72 108.32   # SOURCE3 2 same_as_s-pe-sx
    angle_coeff 3555 harmonic 38.35 106.93   # SOURCE3 1 same_as_s-pe-sy
    angle_coeff 3556 harmonic 36.97 104.79   # SOURCE3 1 0.0000
    angle_coeff 3557 harmonic 37.00 104.86   # SOURCE3 4 0.6354
    angle_coeff 3558 harmonic 37.00 104.86   # SOURCE3 4 same_as_c3-px-ce
    angle_coeff 3559 harmonic 39.55 102.46   # SOURCE3 7 1.8685
    angle_coeff 3560 harmonic 39.55 102.46   # SOURCE3 7 same_as_c3-px-ne
    angle_coeff 3561 harmonic 39.39 113.68   # SOURCE3 28 4.8990
    angle_coeff 3562 harmonic 47.82 105.73   # SOURCE3 10 4.4059
    angle_coeff 3563 harmonic 47.82 105.73   # SOURCE3 10 same_as_c3-px-pe
    angle_coeff 3564 harmonic 45.50 103.11   # SOURCE3 3 0.8680
    angle_coeff 3565 harmonic 36.06 99.55   # SOURCE3 1 0.0000
    angle_coeff 3566 harmonic 35.30 103.41   # SOURCE3 1 0.0000
    angle_coeff 3567 harmonic 37.08 104.15   # SOURCE3 2 3.6168
    angle_coeff 3568 harmonic 40.49 107.50   # SOURCE3 5 5.7355
    angle_coeff 3569 harmonic 36.70 101.72   # SOURCE3 1 0.0000
    angle_coeff 3570 harmonic 37.15 104.21   # SOURCE3 1 0.0000
    angle_coeff 3571 harmonic 39.42 113.79   # SOURCE3 6 0.3877
    angle_coeff 3572 harmonic 37.15 104.21   # SOURCE3 1 same_as_ce-px-ce
    angle_coeff 3573 harmonic 39.42 113.79   # SOURCE3 6 same_as_ce-px-o
    angle_coeff 3574 harmonic 37.98 114.47   # SOURCE3 1 0.0000
    angle_coeff 3575 harmonic 41.92 103.22   # SOURCE3 2 0.6807
    angle_coeff 3576 harmonic 42.27 114.13   # SOURCE3 11 8.9737
    angle_coeff 3577 harmonic 41.92 103.22   # SOURCE3 2 same_as_ne-px-ne
    angle_coeff 3578 harmonic 42.27 114.13   # SOURCE3 11 same_as_ne-px-o
    angle_coeff 3579 harmonic 49.41 116.50   # SOURCE3 12 8.2925
    angle_coeff 3580 harmonic 49.41 116.50   # SOURCE3 12 same_as_o-px-pe
    angle_coeff 3581 harmonic 45.90 114.20   # SOURCE3 5 1.7165
    angle_coeff 3582 harmonic 35.81 112.81   # SOURCE3 3 0.8799
    angle_coeff 3583 harmonic 35.59 113.54   # SOURCE3 3 0.5010
    angle_coeff 3584 harmonic 61.38 110.71   # SOURCE3 1 0.0000
    angle_coeff 3585 harmonic 61.38 110.71   # SOURCE3 1 same_as_pe-px-pe
    angle_coeff 3586 harmonic 56.72 107.78   # SOURCE3 1 0.0000
    angle_coeff 3587 harmonic 36.76 96.24   # SOURCE3 1 0.0000
    angle_coeff 3588 harmonic 35.53 102.36   # SOURCE3 1 0.0000
    angle_coeff 3589 harmonic 37.34 103.83   # SOURCE3 4 0.0000
    angle_coeff 3590 harmonic 38.76 106.89   # SOURCE3 2 0.0000
    angle_coeff 3591 harmonic 38.95 117.87   # SOURCE3 13 2.3554
    angle_coeff 3592 harmonic 41.22 100.16   # SOURCE3 2 0.0000
    angle_coeff 3593 harmonic 40.15 105.39   # SOURCE3 1 0.0000
    angle_coeff 3594 harmonic 44.89 106.27   # SOURCE3 2 0.0000
    angle_coeff 3595 harmonic 43.54 113.97   # SOURCE3 10 1.6346
    angle_coeff 3596 harmonic 34.74 106.36   # SOURCE3 4 0.0000
    angle_coeff 3597 harmonic 36.99 107.55   # SOURCE3 1 0.0000
    angle_coeff 3598 harmonic 39.82 113.98   # SOURCE3 3 0.5309
    angle_coeff 3599 harmonic 40.90 102.68   # SOURCE4 5 1.2945
    angle_coeff 3600 harmonic 40.66 103.75   # SOURCE3 2 0.0000
    angle_coeff 3601 harmonic 35.71 110.36   # SOURCE3 1 0.0000
    angle_coeff 3602 harmonic 36.23 104.20   # SOURCE3 1 0.0000
    angle_coeff 3603 harmonic 37.29 106.54   # SOURCE3 1 0.0000
    angle_coeff 3604 harmonic 40.24 112.16   # SOURCE3 5 3.2594
    angle_coeff 3605 harmonic 40.58 104.77   # SOURCE3 6 2.1852
    angle_coeff 3606 harmonic 40.82 103.34   # SOURCE3 2 0.0000
    angle_coeff 3607 harmonic 37.29 106.54   # SOURCE3 1 same_as_ce-py-ce
    angle_coeff 3608 harmonic 40.24 112.16   # SOURCE3 5 same_as_ce-py-o
    angle_coeff 3609 harmonic 40.58 104.77   # SOURCE3 6 same_as_ce-py-oh
    angle_coeff 3610 harmonic 40.82 103.34   # SOURCE3 2 same_as_ce-py-os
    angle_coeff 3611 harmonic 38.52 115.25   # SOURCE3 6 2.6519
    angle_coeff 3612 harmonic 40.03 102.14   # SOURCE3 6 1.0654
    angle_coeff 3613 harmonic 41.32 95.74   # SOURCE3 3 9.0999
    angle_coeff 3614 harmonic 41.93 108.44   # SOURCE4 12 0.9498
    angle_coeff 3615 harmonic 38.83 115.58   # SOURCE3 4 0.0000
    angle_coeff 3616 harmonic 63.24 55.10   # SOURCE3 4 0.0000
    angle_coeff 3617 harmonic 40.78 122.40   # SOURCE3 2 0.0000
    angle_coeff 3618 harmonic 67.66 50.88   # SOURCE3 2 0.0000
    angle_coeff 3619 harmonic 43.51 106.29   # SOURCE3 1 0.0000
    angle_coeff 3620 harmonic 44.00 113.21   # SOURCE3 15 3.8894
    angle_coeff 3621 harmonic 44.13 104.70   # SOURCE3 26 2.7513
    angle_coeff 3622 harmonic 44.80 101.33   # SOURCE3 2 0.0000
    angle_coeff 3623 harmonic 43.51 106.29   # SOURCE3 1 same_as_ne-py-ne
    angle_coeff 3624 harmonic 44.00 113.21   # SOURCE3 15 same_as_ne-py-o
    angle_coeff 3625 harmonic 44.13 104.70   # SOURCE3 26 same_as_ne-py-oh
    angle_coeff 3626 harmonic 44.80 101.33   # SOURCE3 2 same_as_ne-py-os
    angle_coeff 3627 harmonic 45.06 101.78   # SOURCE3 35 2.2937
    angle_coeff 3628 harmonic 50.99 104.84   # SOURCE3 22 2.0337
    angle_coeff 3629 harmonic 50.99 104.84   # SOURCE3 22 same_as_oh-py-pe
    angle_coeff 3630 harmonic 47.75 104.30   # SOURCE3 8 1.2772
    angle_coeff 3631 harmonic 48.91 100.45   # SOURCE3 6 0.0000
    angle_coeff 3632 harmonic 37.44 100.94   # SOURCE3 4 0.0000
    angle_coeff 3633 harmonic 38.51 101.47   # SOURCE3 6 0.2490
    angle_coeff 3634 harmonic 43.74 116.14   # SOURCE3 79 2.1455
    angle_coeff 3635 harmonic 43.55 116.79   # SOURCE3 17 1.3534
    angle_coeff 3636 harmonic 49.46 114.56   # SOURCE3 12 3.6114
    angle_coeff 3637 harmonic 49.46 114.56   # SOURCE3 12 same_as_o-py-pe
    angle_coeff 3638 harmonic 46.50 111.37   # SOURCE3 5 0.3803
    angle_coeff 3639 harmonic 44.97 120.43   # SOURCE3 16 6.0629
    angle_coeff 3640 harmonic 45.06 101.25   # SOURCE3 8 2.0860
    angle_coeff 3641 harmonic 47.94 104.48   # SOURCE3 4 0.0000
    angle_coeff 3642 harmonic 36.90 103.86   # SOURCE3 2 0.0000
    angle_coeff 3643 harmonic 38.37 102.12   # SOURCE3 2 0.0000
    angle_coeff 3644 harmonic 34.68 118.56   # SOURCE3 7 6.2976
    angle_coeff 3645 harmonic 36.96 111.71   # SOURCE3 5 1.1937
    angle_coeff 3646 harmonic 61.78 107.14   # SOURCE3 1 0.0000
    angle_coeff 3647 harmonic 61.78 107.14   # SOURCE3 1 same_as_pe-py-pe
    angle_coeff 3648 harmonic 55.80 112.70   # SOURCE3 1 0.0000
    angle_coeff 3649 harmonic 58.65 61.54   # SOURCE3 4 0.0000
    angle_coeff 3650 harmonic 36.13 105.17   # SOURCE3 1 0.0000
    angle_coeff 3651 harmonic 65.76 117.25   # SOURCE3 1 0.0000
    angle_coeff 3652 harmonic 68.67 110.84   # SOURCE3 1 0.0000
    angle_coeff 3653 harmonic 66.18 114.70   # SOURCE2 1 0.0000
    angle_coeff 3654 harmonic 53.42 117.70   # SOURCE2 1 0.0000
    angle_coeff 3655 harmonic 66.15 116.90   # SOURCE2 1 0.0000
angle_coeff 3656 harmonic 73.05 108.46   # HF/6-31G* 1
    angle_coeff 3657 harmonic 67.93 121.20   # SOURCE2 2 0.8000
    angle_coeff 3658 harmonic 67.99 116.17   # SOURCE3 1 0.0000
    angle_coeff 3659 harmonic 63.79 118.30   # SOURCE2 1 0.0000
    angle_coeff 3660 harmonic 63.50 115.04   # SOURCE3 1 0.0000
    angle_coeff 3661 harmonic 64.61 98.02   # SOURCE3 1
    angle_coeff 3662 harmonic 62.19 92.98   # SOURCE3 1 0.0000
    angle_coeff 3663 harmonic 59.20 112.07   # SOURCE3 1 0.0000
    angle_coeff 3664 harmonic 65.35 93.55   # SOURCE3 1 0.0000
    angle_coeff 3665 harmonic 65.98 110.36   # SOURCE3 2 0.0000
    angle_coeff 3666 harmonic 62.00 102.29   # SOURCE3 1
    angle_coeff 3667 harmonic 63.48 94.95   # SOURCE3 1
    angle_coeff 3668 harmonic 66.61 107.09   # SOURCE3 1
    angle_coeff 3669 harmonic 62.07 96.82   # SOURCE3 11 1.5580
    angle_coeff 3670 harmonic 62.99 95.00   # SOURCE3 1
    angle_coeff 3671 harmonic 66.32 91.70   # SOURCE3 1 0.0000
    angle_coeff 3672 harmonic 46.55 90.60   # SOURCE3 1 0.0000
    angle_coeff 3673 harmonic 52.86 90.53   # SOURCE3 1 0.0000
    angle_coeff 3674 harmonic 69.07 90.59   # SOURCE3 1
    angle_coeff 3675 harmonic 65.18 94.49   # SOURCE3 4 1.5570
    angle_coeff 3676 harmonic 64.28 96.07   # SOURCE3 4 1.0354
    angle_coeff 3677 harmonic 61.99 92.47   # SOURCE3 1 0.0000
    angle_coeff 3678 harmonic 65.11 93.07   # SOURCE3 10 1.8813
    angle_coeff 3679 harmonic 64.51 97.08   # SOURCE3 1 0.0000
    angle_coeff 3680 harmonic 62.53 89.53   # SOURCE3 1 0.0000
    angle_coeff 3681 harmonic 65.63 106.21   # SOURCE3 60 2.0426
    angle_coeff 3682 harmonic 68.22 90.25   # SOURCE4 8 0.3023
    angle_coeff 3683 harmonic 68.23 90.06   # SOURCE3 4 0.4484
    angle_coeff 3684 harmonic 76.43 94.37   # SOURCE3 1
    angle_coeff 3685 harmonic 78.19 96.54   # SOURCE3 4 1.3634
    angle_coeff 3686 harmonic 73.69 97.40   # SOURCE3 1
    angle_coeff 3687 harmonic 78.32 99.18   # SOURCE3 1
    angle_coeff 3688 harmonic 64.31 89.50   # SOURCE3 1
    angle_coeff 3689 harmonic 61.31 98.72   # SOURCE3 2 0.0185
    angle_coeff 3690 harmonic 61.62 97.48   # SOURCE3 1
    angle_coeff 3691 harmonic 60.74 94.66   # SOURCE3 1 0.0000
    angle_coeff 3692 harmonic 60.58 95.31   # SOURCE3 3 1.4101
    angle_coeff 3693 harmonic 63.26 95.21   # SOURCE3 1
    angle_coeff 3694 harmonic 66.01 106.63   # SOURCE3 1
    angle_coeff 3695 harmonic 61.53 95.07   # SOURCE3 1
    angle_coeff 3696 harmonic 63.34 86.83   # SOURCE3 1
    angle_coeff 3697 harmonic 53.89 97.68   # SOURCE3 1 0.0000
    angle_coeff 3698 harmonic 58.13 108.34   # SOURCE3 2 0.0000
    angle_coeff 3699 harmonic 63.97 106.17   # SOURCE3 1
    angle_coeff 3700 harmonic 86.71 48.80   # SOURCE2 1 0.0000
    angle_coeff 3701 harmonic 64.10 110.00   # SOURCE2 1 0.0000
    angle_coeff 3702 harmonic 69.99 92.71   # SOURCE2 3 0.1490
    angle_coeff 3703 harmonic 70.11 106.81   # SOURCE2 2 0.0100
    angle_coeff 3704 harmonic 59.78 107.50   # SOURCE2 1 0.0000
    angle_coeff 3705 harmonic 37.79 87.00   # SOURCE3 2 0.0202
angle_coeff 3706 harmonic 51.22 90.51   # HF/6-31G* 1
    angle_coeff 3707 harmonic 49.80 110.27   # SOURCE3 5 0.1908
    angle_coeff 3708 harmonic 54.45 97.29   # SOURCE3 1
    angle_coeff 3709 harmonic 47.32 113.91   # SOURCE3 1 0.0000
angle_coeff 3710 harmonic 72.41 94.02   # HF/6-31G* 1
angle_coeff 3711 harmonic 70.24 110.09   # HF/6-31G* 1
    angle_coeff 3712 harmonic 75.77 90.17   # SOURCE3 1
    angle_coeff 3713 harmonic 72.12 107.57   # SOURCE3 1
    angle_coeff 3714 harmonic 68.89 91.19   # SOURCE3 1 0.0000
    angle_coeff 3715 harmonic 67.59 109.07   # SOURCE3 6 2.3605
    angle_coeff 3716 harmonic 60.39 94.61   # SOURCE3 1 0.0000
    angle_coeff 3717 harmonic 63.17 104.91   # SOURCE3 3 0.4370
    angle_coeff 3718 harmonic 63.63 103.10   # SOURCE3 1
    angle_coeff 3719 harmonic 66.52 109.75   # SOURCE3 10 2.6919
    angle_coeff 3720 harmonic 68.96 92.24   # SOURCE3 1 0.0000
    angle_coeff 3721 harmonic 68.40 107.54   # SOURCE3 3 0.0401
    angle_coeff 3722 harmonic 68.03 91.30   # SOURCE3 1
    angle_coeff 3723 harmonic 68.09 105.70   # SOURCE3 4 1.6857
    angle_coeff 3724 harmonic 63.55 83.40   # SOURCE3 1 0.0000
    angle_coeff 3725 harmonic 62.93 103.58   # SOURCE3 3 1.5109
    angle_coeff 3726 harmonic 69.00 100.34   # SOURCE3 1
    angle_coeff 3727 harmonic 74.43 110.61   # SOURCE3 5 3.6413
    angle_coeff 3728 harmonic 69.42 110.13   # SOURCE4 10 0.5760
    angle_coeff 3729 harmonic 69.67 109.02   # SOURCE3 8 1.5005
    angle_coeff 3730 harmonic 76.18 106.77   # SOURCE3 1
    angle_coeff 3731 harmonic 79.76 106.51   # SOURCE3 8 4.0943
    angle_coeff 3732 harmonic 75.38 103.36   # SOURCE3 1
    angle_coeff 3733 harmonic 85.32 96.95   # SOURCE3 1
    angle_coeff 3734 harmonic 63.80 104.55   # SOURCE3 1
    angle_coeff 3735 harmonic 61.69 112.22   # SOURCE3 4 2.8682
    angle_coeff 3736 harmonic 64.33 102.84   # SOURCE3 1
    angle_coeff 3737 harmonic 60.56 107.51   # SOURCE3 3 0.7511
    angle_coeff 3738 harmonic 71.26 93.68   # SOURCE3 2 2.4166
    angle_coeff 3739 harmonic 60.06 109.49   # SOURCE3 5 1.8509
    angle_coeff 3740 harmonic 98.20 92.62   # SOURCE3 1
    angle_coeff 3741 harmonic 101.37 95.71   # SOURCE3 2 1.2239
    angle_coeff 3742 harmonic 104.72 93.86   # SOURCE3 1
    angle_coeff 3743 harmonic 65.42 90.17   # SOURCE3 1
    angle_coeff 3744 harmonic 65.42 90.17   # SOURCE3 1
    angle_coeff 3745 harmonic 64.23 93.52   # SOURCE3 1
    angle_coeff 3746 harmonic 58.79 102.76   # SOURCE3 1 0.0000
    angle_coeff 3747 harmonic 58.85 102.64   # SOURCE3 1
    angle_coeff 3748 harmonic 59.87 108.08   # SOURCE3 1 0.0000
    angle_coeff 3749 harmonic 61.05 95.47   # SOURCE3 1 0.0000
    angle_coeff 3750 harmonic 67.11 101.57   # SOURCE3 1 0.0000
    angle_coeff 3751 harmonic 63.24 98.99   # SOURCE3 1 0.0000
    angle_coeff 3752 harmonic 63.06 100.60   # SOURCE2 1 0.0000
    angle_coeff 3753 harmonic 63.90 107.58   # SOURCE3 6 0.3000
    angle_coeff 3754 harmonic 64.09 99.99   # SOURCE3 1 0.0000
    angle_coeff 3755 harmonic 68.10 108.23   # SOURCE3 4 0.0000
    angle_coeff 3756 harmonic 61.86 102.75   # SOURCE3 1
    angle_coeff 3757 harmonic 61.23 104.05   # SOURCE3 1
    angle_coeff 3758 harmonic 67.53 106.58   # SOURCE3 1
    angle_coeff 3759 harmonic 61.35 102.83   # SOURCE3 7 1.2531
    angle_coeff 3760 harmonic 61.51 103.17   # SOURCE3 1
    angle_coeff 3761 harmonic 62.55 94.57   # SOURCE4 8 0.4183
    angle_coeff 3762 harmonic 65.73 97.11   # SOURCE3 1 0.0000
    angle_coeff 3763 harmonic 44.94 100.62   # SOURCE3 1 0.0000
    angle_coeff 3764 harmonic 50.82 97.74   # SOURCE3 1 0.0000
    angle_coeff 3765 harmonic 63.42 112.95   # SOURCE4 11 0.7920
    angle_coeff 3766 harmonic 65.71 101.38   # SOURCE4 60 0.9507
    angle_coeff 3767 harmonic 63.84 102.97   # SOURCE3 4 0.8785
    angle_coeff 3768 harmonic 61.33 99.40   # SOURCE3 3 0.4695
    angle_coeff 3769 harmonic 63.68 102.81   # SOURCE3 10 3.1256
    angle_coeff 3770 harmonic 63.74 104.31   # SOURCE4 34 1.5848
    angle_coeff 3771 harmonic 60.08 99.57   # SOURCE3 1 0.0000
    angle_coeff 3772 harmonic 66.59 108.32   # SOURCE3 112 1.8014
    angle_coeff 3773 harmonic 67.71 98.60   # SOURCE4 42 0.8366
    angle_coeff 3774 harmonic 68.68 96.32   # SOURCE4 30 0.4539
    angle_coeff 3775 harmonic 72.54 106.47   # SOURCE3 1
    angle_coeff 3776 harmonic 76.24 103.40   # SOURCE3 3 0.8516
    angle_coeff 3777 harmonic 71.10 104.12   # SOURCE3 1
    angle_coeff 3778 harmonic 77.16 103.46   # SOURCE3 1
    angle_coeff 3779 harmonic 61.78 98.10   # SOURCE3 1
    angle_coeff 3780 harmonic 60.70 104.50   # SOURCE3 1 0.0000
    angle_coeff 3781 harmonic 60.60 101.95   # SOURCE3 1
    angle_coeff 3782 harmonic 60.07 101.84   # SOURCE3 1 0.0000
    angle_coeff 3783 harmonic 59.68 102.47   # SOURCE3 3 1.7451
    angle_coeff 3784 harmonic 61.80 103.08   # SOURCE3 1
    angle_coeff 3785 harmonic 68.37 104.07   # SOURCE4 59 0.5636
    angle_coeff 3786 harmonic 60.12 101.24   # SOURCE3 1
    angle_coeff 3787 harmonic 59.07 99.82   # SOURCE3 1
    angle_coeff 3788 harmonic 65.29 103.63   # SOURCE4 9 0.5934
    angle_coeff 3789 harmonic 52.93 101.25   # SOURCE3 1 0.0000
    angle_coeff 3790 harmonic 57.88 99.00   # SOURCE2 1 0.0000
    angle_coeff 3791 harmonic 58.51 107.66   # SOURCE3 4 0.0000
    angle_coeff 3792 harmonic 63.97 107.97   # SOURCE3 1
    angle_coeff 3793 harmonic 64.36 102.12   # SOURCE3 1
    angle_coeff 3794 harmonic 86.21 54.70   # SOURCE2 1 0.0000
    angle_coeff 3795 harmonic 63.83 110.22   # SOURCE4 20 1.1009
    angle_coeff 3796 harmonic 70.81 94.70   # SOURCE2 3 0.9899
    angle_coeff 3797 harmonic 72.38 106.48   # SOURCE3 2 0.0000
    angle_coeff 3798 harmonic 35.84 99.02   # SOURCE3 2 0.0595
angle_coeff 3799 harmonic 54.71 97.27   # HF/6-31G* 1
    angle_coeff 3800 harmonic 51.91 107.60   # SOURCE3 10 0.0343
    angle_coeff 3801 harmonic 53.90 99.25   # SOURCE3 1
    angle_coeff 3802 harmonic 47.73 109.74   # SOURCE3 2 0.0000
angle_coeff 3803 harmonic 83.71 95.52   # HF/6-31G* 1
angle_coeff 3804 harmonic 78.79 107.52   # HF/6-31G* 1
    angle_coeff 3805 harmonic 75.20 98.61   # SOURCE3 1
    angle_coeff 3806 harmonic 72.08 116.41   # SOURCE3 3 5.0830
    angle_coeff 3807 harmonic 71.75 106.96   # SOURCE3 2 0.0000
    angle_coeff 3808 harmonic 73.30 103.25   # SOURCE3 1
    angle_coeff 3809 harmonic 71.49 98.57   # SOURCE4 7 0.2690
    angle_coeff 3810 harmonic 72.90 106.80   # SOURCE3 14 1.7908
    angle_coeff 3811 harmonic 72.84 99.26   # SOURCE4 8 0.5141
    angle_coeff 3812 harmonic 59.97 101.85   # SOURCE3 1 0.0000
    angle_coeff 3813 harmonic 65.83 102.92   # SOURCE3 10 1.5434
    angle_coeff 3814 harmonic 67.74 98.04   # SOURCE3 1
    angle_coeff 3815 harmonic 70.46 105.67   # SOURCE3 20 0.8019
    angle_coeff 3816 harmonic 70.22 94.56   # SOURCE3 1 0.0000
    angle_coeff 3817 harmonic 70.23 109.12   # SOURCE3 6 0.9556
    angle_coeff 3818 harmonic 66.18 104.16   # SOURCE3 1
    angle_coeff 3819 harmonic 70.74 105.91   # SOURCE3 8 0.2953
    angle_coeff 3820 harmonic 61.24 91.63   # SOURCE3 1 0.0000
    angle_coeff 3821 harmonic 62.67 107.43   # SOURCE3 6 1.5494
    angle_coeff 3822 harmonic 70.81 99.23   # SOURCE4 5 0.9794
    angle_coeff 3823 harmonic 73.67 100.34   # SOURCE3 6 0.0076
    angle_coeff 3824 harmonic 75.33 96.62   # SOURCE4 26 0.6688
    angle_coeff 3825 harmonic 75.13 109.67   # SOURCE3 2 0.0000
    angle_coeff 3826 harmonic 74.58 119.73   # SOURCE4 324 2.0530
    angle_coeff 3827 harmonic 74.13 108.21   # SOURCE3 18 0.7437
    angle_coeff 3828 harmonic 74.58 107.84   # SOURCE3 12 0.7025
    angle_coeff 3829 harmonic 76.65 106.61   # SOURCE3 1
    angle_coeff 3830 harmonic 80.16 107.07   # SOURCE3 22 1.0550
    angle_coeff 3831 harmonic 73.92 105.67   # SOURCE3 1
    angle_coeff 3832 harmonic 81.69 106.64   # SOURCE3 1
    angle_coeff 3833 harmonic 63.02 107.85   # SOURCE3 1
    angle_coeff 3834 harmonic 63.52 110.29   # SOURCE3 6 2.2405
    angle_coeff 3835 harmonic 63.55 106.07   # SOURCE3 1
    angle_coeff 3836 harmonic 62.53 106.81   # SOURCE3 6 0.6292
    angle_coeff 3837 harmonic 74.80 98.70   # SOURCE3 1 0.0000
    angle_coeff 3838 harmonic 62.06 107.43   # SOURCE3 10 1.1423
    angle_coeff 3839 harmonic 94.93 110.17   # SOURCE3 4 5.3678
    angle_coeff 3840 harmonic 99.25 104.49   # SOURCE3 1
    angle_coeff 3841 harmonic 61.51 101.99   # SOURCE3 1
    angle_coeff 3842 harmonic 65.42 90.17   # SOURCE3 1
    angle_coeff 3843 harmonic 61.12 103.29   # SOURCE3 1
    angle_coeff 3844 harmonic 59.41 106.43   # SOURCE3 1 0.0000
    angle_coeff 3845 harmonic 60.36 102.64   # SOURCE3 1
    angle_coeff 3846 harmonic 60.63 109.34   # SOURCE3 1 0.0000
    angle_coeff 3847 harmonic 60.46 101.82   # SOURCE3 1 0.0000
    angle_coeff 3848 harmonic 43.54 95.64   # SOURCE3 1 0.0000
    angle_coeff 3849 harmonic 48.23 95.99   # calculated_based_on_C#C-SH 0
    angle_coeff 3850 harmonic 45.81 97.08   # SOURCE4 5 0.3132
    angle_coeff 3851 harmonic 44.94 96.60   # SOURCE3 12 0.8009
    angle_coeff 3852 harmonic 46.32 94.84   # SOURCE4 13 0.4130
    angle_coeff 3853 harmonic 46.41 95.38   # SOURCE4 8 1.1410
    angle_coeff 3854 harmonic 45.96 96.07   # SOURCE3 6 1.1164
    angle_coeff 3855 harmonic 48.09 96.50   # SOURCE3 1 0.0000
    angle_coeff 3856 harmonic 37.45 93.72   # SOURCE3 3 0.4777
    angle_coeff 3857 harmonic 37.09 96.44   # SOURCE3 1 0.0000
angle_coeff 3858 harmonic 51.69 93.51   # HF/6-31G* 1
    angle_coeff 3859 harmonic 48.12 95.82   # SOURCE3 5 3.1495
    angle_coeff 3860 harmonic 48.41 95.59   # SOURCE3 4 3.9065
    angle_coeff 3861 harmonic 48.06 95.98   # SOURCE3 3 1.1735
    angle_coeff 3862 harmonic 47.15 93.13   # SOURCE3 3 0.1675
    angle_coeff 3863 harmonic 48.12 97.38   # SOURCE3 9 1.0223
    angle_coeff 3864 harmonic 47.52 101.11   # SOURCE3 1 0.0000
    angle_coeff 3865 harmonic 47.35 92.93   # SOURCE3 1 0.0000
    angle_coeff 3866 harmonic 48.22 109.23   # SOURCE3 2 0.0068
    angle_coeff 3867 harmonic 48.75 98.64   # SOURCE3 2 0.0605
    angle_coeff 3868 harmonic 49.35 98.15   # SOURCE3 3 0.1661
    angle_coeff 3869 harmonic 56.52 99.12   # SOURCE3 10 5.4110
    angle_coeff 3870 harmonic 53.11 95.81   # SOURCE3 3 0.4396
    angle_coeff 3871 harmonic 54.01 94.22   # SOURCE3 4 0.7605
    angle_coeff 3872 harmonic 54.80 94.52   # SOURCE3 3 0.5589
    angle_coeff 3873 harmonic 40.94 102.87   # SOURCE3 2 0.0000
    angle_coeff 3874 harmonic 42.04 92.16   # SOURCE3 3 1.6519
    angle_coeff 3875 harmonic 42.91 93.83   # SOURCE3 3 1.2561
    angle_coeff 3876 harmonic 42.80 99.07   # SOURCE3 2 0.0000
    angle_coeff 3877 harmonic 42.59 99.17   # SOURCE3 3 0.2457
    angle_coeff 3878 harmonic 67.00 102.92   # SOURCE3 1 0.0000
    angle_coeff 3879 harmonic 63.06 99.03   # SOURCE3 1 0.0000
    angle_coeff 3880 harmonic 66.30 98.30   # SOURCE2 1 0.0000
    angle_coeff 3881 harmonic 62.89 99.90   # SOURCE2 1 0.0000
    angle_coeff 3882 harmonic 63.71 99.56   # SOURCE3 1 0.0000
    angle_coeff 3883 harmonic 61.87 100.37   # SOURCE4 100 2.3280
    angle_coeff 3884 harmonic 65.30 88.61   # SOURCE4 27 0.4481
    angle_coeff 3885 harmonic 64.45 106.76   # SOURCE3 1 0.0000
    angle_coeff 3886 harmonic 65.02 100.51   # SOURCE3 6 6.9702
    angle_coeff 3887 harmonic 69.78 89.76   # SOURCE3 1 0.0000
    angle_coeff 3888 harmonic 64.78 92.26   # SOURCE3 1 0.0000
    angle_coeff 3889 harmonic 60.63 99.92   # SOURCE3 14 2.0723
    angle_coeff 3890 harmonic 60.80 102.12   # SOURCE4 161 1.3084
    angle_coeff 3891 harmonic 61.74 100.75   # CORR 87
    angle_coeff 3892 harmonic 61.74 100.75   # CORR 87
    angle_coeff 3893 harmonic 56.40 99.40   # SOURCE2 1 0.0000
    angle_coeff 3894 harmonic 61.94 94.32   # SOURCE4 62 0.3646
    angle_coeff 3895 harmonic 63.40 97.49   # SOURCE3 1 0.0000
    angle_coeff 3896 harmonic 56.03 100.00   # SOURCE3 1 0.0000
angle_coeff 3897 harmonic 65.93 98.44   # HF/6-31G* 1
    angle_coeff 3898 harmonic 65.94 96.42   # SOURCE3 5 1.3604
    angle_coeff 3899 harmonic 64.10 98.83   # SOURCE3 3 0.2909
    angle_coeff 3900 harmonic 63.71 100.30   # SOURCE3 4 0.6579
    angle_coeff 3901 harmonic 62.94 97.79   # SOURCE3 3 0.2002
    angle_coeff 3902 harmonic 63.51 100.14   # SOURCE3 12 1.7415
    angle_coeff 3903 harmonic 63.75 100.63   # SOURCE3 1 0.0000
    angle_coeff 3904 harmonic 62.40 98.62   # SOURCE3 1 0.0000
    angle_coeff 3905 harmonic 64.67 106.60   # SOURCE3 2 1.6714
    angle_coeff 3906 harmonic 65.29 98.28   # SOURCE3 2 1.4326
    angle_coeff 3907 harmonic 64.97 98.21   # SOURCE3 4 1.7097
    angle_coeff 3908 harmonic 80.22 98.41   # SOURCE3 8 0.9454
    angle_coeff 3909 harmonic 76.29 98.70   # SOURCE3 3 0.0356
    angle_coeff 3910 harmonic 76.93 98.16   # SOURCE3 4 0.1361
    angle_coeff 3911 harmonic 75.86 100.22   # SOURCE4 23 1.1410
    angle_coeff 3912 harmonic 60.11 96.37   # SOURCE3 3 0.0202
    angle_coeff 3913 harmonic 59.94 101.90   # SOURCE3 1 0.0000
    angle_coeff 3914 harmonic 60.94 96.76   # SOURCE3 3 1.5680
    angle_coeff 3915 harmonic 60.36 101.93   # SOURCE3 1 0.0000
    angle_coeff 3916 harmonic 60.34 103.10   # SOURCE4 70 1.3377
    angle_coeff 3917 harmonic 62.76 98.71   # SOURCE4 97 1.2321
    angle_coeff 3918 harmonic 66.53 89.47   # CORR 134
    angle_coeff 3919 harmonic 66.53 89.47   # CORR 134
    angle_coeff 3920 harmonic 56.45 101.05   # SOURCE3 1 0.0000
    angle_coeff 3921 harmonic 65.76 97.16   # SOURCE3 1
    angle_coeff 3922 harmonic 64.76 99.32   # SOURCE3 1
    angle_coeff 3923 harmonic 69.21 94.76   # SOURCE3 1 0.0000
    angle_coeff 3924 harmonic 69.21 94.76   # SOURCE3 1 same_as_ca-ss-nc
    angle_coeff 3925 harmonic 60.39 104.90   # SOURCE4 19 0.8743
    angle_coeff 3926 harmonic 65.63 92.43   # SOURCE3 1 0.0000
    angle_coeff 3927 harmonic 61.48 100.29   # SOURCE3 5 2.2127
    angle_coeff 3928 harmonic 62.20 101.40   # SOURCE3 1 0.0000
    angle_coeff 3929 harmonic 65.61 92.43   # SOURCE4 14 2.3600
    angle_coeff 3930 harmonic 67.01 89.91   # SOURCE3 11 2.2164
    angle_coeff 3931 harmonic 67.07 89.74   # SOURCE4 49 0.7509
    angle_coeff 3932 harmonic 66.42 97.16   # SOURCE3 1 same_as_cd-ss-n
    angle_coeff 3933 harmonic 65.39 99.33   # SOURCE3 18 same_as_cd-ss-na
    angle_coeff 3934 harmonic 70.31 94.08   # CORR 13
    angle_coeff 3935 harmonic 66.48 98.81   # SOURCE3 2 2.1583
    angle_coeff 3936 harmonic 63.91 94.76   # CORR 13
    angle_coeff 3937 harmonic 67.01 89.91   # SOURCE3 11 2.2164
    angle_coeff 3938 harmonic 66.42 97.16   # SOURCE3 1 0.0000
    angle_coeff 3939 harmonic 65.39 99.33   # SOURCE3 18 2.5847
    angle_coeff 3940 harmonic 70.31 94.08   # CORR 13
    angle_coeff 3941 harmonic 66.48 98.81   # SOURCE3 2 same_as_cc-ss-os
    angle_coeff 3942 harmonic 63.91 94.76   # CORR 13
    angle_coeff 3943 harmonic 52.39 103.37   # SOURCE3 1 0.0000
    angle_coeff 3944 harmonic 87.49 48.30   # SOURCE2 1 0.0000
    angle_coeff 3945 harmonic 66.18 98.30   # SOURCE2 1 0.0000
    angle_coeff 3946 harmonic 59.85 108.30   # SOURCE2 1 0.0000
    angle_coeff 3947 harmonic 58.15 106.29   # SOURCE3 1 0.0000
angle_coeff 3948 harmonic 73.07 96.96   # HF/6-31G* 1
    angle_coeff 3949 harmonic 71.12 96.75   # SOURCE3 1 0.0000
    angle_coeff 3950 harmonic 66.50 102.34   # SOURCE3 1 0.0000
    angle_coeff 3951 harmonic 63.55 101.19   # SOURCE3 1 0.0000
    angle_coeff 3952 harmonic 65.92 102.81   # SOURCE3 1 0.0000
    angle_coeff 3953 harmonic 75.03 97.94   # CORR 9
    angle_coeff 3954 harmonic 75.03 97.94   # CORR 9
    angle_coeff 3955 harmonic 65.30 107.89   # SOURCE3 1 0.0000
    angle_coeff 3956 harmonic 66.45 103.10   # SOURCE3 1 0.0000
    angle_coeff 3957 harmonic 61.43 106.43   # SOURCE3 1 0.0000
    angle_coeff 3958 harmonic 68.23 104.25   # SOURCE3 1 0.0000
    angle_coeff 3959 harmonic 69.80 119.30   # SOURCE2 1 0.0000
    angle_coeff 3960 harmonic 78.64 106.41   # SOURCE3 1 0.0000
    angle_coeff 3961 harmonic 62.35 105.39   # SOURCE3 1
    angle_coeff 3962 harmonic 67.76 102.99   # SOURCE3 1 0.0000
    angle_coeff 3963 harmonic 62.04 112.70   # SOURCE2 1 0.0000
    angle_coeff 3964 harmonic 105.52 99.52   # SOURCE3 1 0.0000
    angle_coeff 3965 harmonic 96.77 101.67   # SOURCE3 1
    angle_coeff 3966 harmonic 103.25 89.83   # SOURCE3 1 0.0000
    angle_coeff 3967 harmonic 60.86 96.08   # SOURCE3 1 0.0000
    angle_coeff 3968 harmonic 59.93 101.26   # SOURCE3 1
    angle_coeff 3969 harmonic 60.46 101.81   # SOURCE3 1 0.0000
    angle_coeff 3970 harmonic 60.28 107.54   # SOURCE3 1 0.0000
    angle_coeff 3971 harmonic 60.81 106.53   # SOURCE3 1
    angle_coeff 3972 harmonic 57.67 115.04   # SOURCE3 1
    angle_coeff 3973 harmonic 60.44 108.76   # SOURCE4 8 0.2385
    angle_coeff 3974 harmonic 61.85 96.41   # SOURCE4 13 0.3130
    angle_coeff 3975 harmonic 62.52 95.11   # SOURCE4 17 0.6557
    angle_coeff 3976 harmonic 62.82 94.95   # SOURCE3 3 0.0007
    angle_coeff 3977 harmonic 62.82 94.95   # SOURCE3 3 same_as_c3-sx-ce
    angle_coeff 3978 harmonic 65.33 90.06   # SOURCE3 5 1.9627
    angle_coeff 3979 harmonic 65.33 90.06   # SOURCE3 5 same_as_c3-sx-ne
    angle_coeff 3980 harmonic 64.94 107.88   # SOURCE3 30 0.8721
    angle_coeff 3981 harmonic 76.99 94.32   # SOURCE3 7 0.5547
    angle_coeff 3982 harmonic 76.99 94.32   # SOURCE3 7 same_as_c3-sx-pe
    angle_coeff 3983 harmonic 74.26 96.46   # SOURCE3 3 1.3351
    angle_coeff 3984 harmonic 74.13 95.67   # SOURCE3 1 0.0000
    angle_coeff 3985 harmonic 57.22 91.47   # SOURCE3 4 1.9919
    angle_coeff 3986 harmonic 58.71 95.47   # SOURCE3 3 2.8422
    angle_coeff 3987 harmonic 61.97 95.21   # SOURCE3 1 0.0000
    angle_coeff 3988 harmonic 64.82 106.89   # SOURCE4 25 0.5562
    angle_coeff 3989 harmonic 62.01 92.71   # SOURCE3 3 0.3095
    angle_coeff 3990 harmonic 62.83 86.85   # SOURCE3 1 0.0000
    angle_coeff 3991 harmonic 65.92 104.49   # SOURCE4 17 1.7759
    angle_coeff 3992 harmonic 63.02 94.96   # SOURCE3 1 0.0000
    angle_coeff 3993 harmonic 65.38 107.47   # SOURCE3 5 0.3128
    angle_coeff 3994 harmonic 63.02 94.96   # SOURCE3 1 same_as_ce-sx-ce
    angle_coeff 3995 harmonic 65.38 107.47   # SOURCE3 5 same_as_ce-sx-o
    angle_coeff 3996 harmonic 63.47 106.17   # SOURCE3 5 0.9477
    angle_coeff 3997 harmonic 66.37 90.17   # SOURCE3 1 0.0000
    angle_coeff 3998 harmonic 65.36 109.20   # SOURCE3 7 1.4542
    angle_coeff 3999 harmonic 66.37 90.17   # SOURCE3 1 same_as_ne-sx-ne
    angle_coeff 4000 harmonic 65.36 109.20   # SOURCE3 7 same_as_ne-sx-o
    angle_coeff 4001 harmonic 77.00 106.43   # SOURCE3 9 2.8345
    angle_coeff 4002 harmonic 77.00 106.43   # SOURCE3 9 same_as_o-sx-pe
    angle_coeff 4003 harmonic 75.16 104.77   # SOURCE3 3 1.9810
    angle_coeff 4004 harmonic 73.10 109.13   # SOURCE3 7 5.6840
    angle_coeff 4005 harmonic 55.68 104.65   # SOURCE3 6 3.0524
    angle_coeff 4006 harmonic 59.44 103.41   # SOURCE3 5 0.9618
    angle_coeff 4007 harmonic 99.19 92.62   # SOURCE3 1 0.0000
    angle_coeff 4008 harmonic 99.19 92.62   # SOURCE3 1 same_as_pe-sx-pe
    angle_coeff 4009 harmonic 110.11 69.23   # SOURCE3 3 17.4143
    angle_coeff 4010 harmonic 58.65 84.90   # SOURCE3 1 0.0000
    angle_coeff 4011 harmonic 59.25 93.52   # SOURCE3 1 0.0000
    angle_coeff 4012 harmonic 60.74 103.86   # SOURCE4 54 0.3180
    angle_coeff 4013 harmonic 61.24 102.19   # SOURCE4 12 1.5324
    angle_coeff 4014 harmonic 60.79 103.81   # SOURCE3 3 0.3368
    angle_coeff 4015 harmonic 60.79 103.81   # SOURCE3 3 same_as_c3-sy-ce
    angle_coeff 4016 harmonic 63.01 103.12   # SOURCE3 5 4.1882
    angle_coeff 4017 harmonic 63.01 103.12   # SOURCE3 5 same_as_c3-sy-ne
    angle_coeff 4018 harmonic 65.97 108.48   # SOURCE3 62 0.8576
    angle_coeff 4019 harmonic 71.79 106.03   # SOURCE3 6 2.6117
    angle_coeff 4020 harmonic 71.79 106.03   # SOURCE3 6 same_as_c3-sy-pe
    angle_coeff 4021 harmonic 71.71 103.62   # SOURCE3 3 0.7078
    angle_coeff 4022 harmonic 73.48 103.39   # SOURCE3 3 0.4563
    angle_coeff 4023 harmonic 56.27 104.64   # SOURCE3 3 4.6276
    angle_coeff 4024 harmonic 57.43 100.78   # SOURCE3 4 1.1633
    angle_coeff 4025 harmonic 60.65 104.04   # SOURCE4 25 2.0762
    angle_coeff 4026 harmonic 60.36 105.09   # SOURCE4 5 0.3628
    angle_coeff 4027 harmonic 64.10 102.48   # SOURCE4 180 1.0802
    angle_coeff 4028 harmonic 62.89 105.45   # SOURCE4 51 1.1497
    angle_coeff 4029 harmonic 62.86 103.47   # SOURCE4 11 1.6071
    angle_coeff 4030 harmonic 62.86 105.59   # SOURCE4 78 1.5805
    angle_coeff 4031 harmonic 65.84 108.73   # SOURCE3 26 1.2638
    angle_coeff 4032 harmonic 65.64 101.25   # SOURCE4 23 0.9100
    angle_coeff 4033 harmonic 67.64 92.98   # SOURCE3 1 0.0000
    angle_coeff 4034 harmonic 60.09 101.25   # SOURCE3 3 1.1850
    angle_coeff 4035 harmonic 59.23 99.81   # SOURCE3 1 0.0000
    angle_coeff 4036 harmonic 64.10 102.54   # CORR 30
    angle_coeff 4037 harmonic 66.17 107.71   # CORR 100
    angle_coeff 4038 harmonic 64.10 102.54   # CORR 30
    angle_coeff 4039 harmonic 65.53 97.20   # SOURCE4 6 0.2429
    angle_coeff 4040 harmonic 66.17 107.71   # CORR 100
    angle_coeff 4041 harmonic 61.09 102.78   # SOURCE3 1 0.0000
    angle_coeff 4042 harmonic 66.35 107.25   # SOURCE3 10 0.5477
    angle_coeff 4043 harmonic 61.09 102.78   # SOURCE3 1 same_as_ce-sy-ce
    angle_coeff 4044 harmonic 66.35 107.25   # SOURCE3 10 same_as_ce-sy-o
    angle_coeff 4045 harmonic 64.07 107.23   # SOURCE3 10 0.8425
    angle_coeff 4046 harmonic 63.64 105.60   # SOURCE4 7 0.2000
    angle_coeff 4047 harmonic 61.16 123.53   # SOURCE4 6 1.2388
    angle_coeff 4048 harmonic 66.36 102.40   # SOURCE4 5 1.3390
    angle_coeff 4049 harmonic 70.45 107.11   # SOURCE4 375 1.1257
    angle_coeff 4050 harmonic 67.74 98.04   # SOURCE3 1
    angle_coeff 4051 harmonic 75.24 98.04   # SOURCE3 2
    angle_coeff 4052 harmonic 75.24 98.04   # SOURCE3 2
    angle_coeff 4053 harmonic 66.58 98.62   # SOURCE3 1 0.0000
    angle_coeff 4054 harmonic 68.89 107.06   # SOURCE3 14 2.2705
    angle_coeff 4055 harmonic 66.58 98.62   # SOURCE3 1 same_as_ne-sy-ne
    angle_coeff 4056 harmonic 68.89 107.06   # SOURCE3 14 same_as_ne-sy-o
    angle_coeff 4057 harmonic 70.18 106.38   # SOURCE4 123 1.6517
    angle_coeff 4058 harmonic 69.79 107.50   # SOURCE4 61 1.8720
    angle_coeff 4059 harmonic 72.40 121.88   # SOURCE3 46 0.9495
    angle_coeff 4060 harmonic 72.26 106.93   # SOURCE3 8 0.7424
    angle_coeff 4061 harmonic 70.39 108.31   # SOURCE4 7 0.1222
    angle_coeff 4062 harmonic 75.40 106.90   # SOURCE3 12 1.4524
    angle_coeff 4063 harmonic 75.40 106.90   # SOURCE3 12 same_as_o-sy-pe
    angle_coeff 4064 harmonic 74.45 106.17   # SOURCE3 6 0.7059
    angle_coeff 4065 harmonic 76.54 106.67   # SOURCE3 10 0.6478
    angle_coeff 4066 harmonic 58.62 106.33   # SOURCE3 10 2.0456
    angle_coeff 4067 harmonic 58.79 106.19   # SOURCE3 12 0.1754
    angle_coeff 4068 harmonic 92.79 104.49   # SOURCE3 1 0.0000
    angle_coeff 4069 harmonic 56.74 101.99   # SOURCE3 1 0.0000
    angle_coeff 4070 harmonic 56.50 103.29   # SOURCE3 1 0.0000
    angle_coeff 4071 harmonic 58.18 179.01   # NEW 6
    angle_coeff 4072 harmonic 55.79 178.52   # NEW 39
    angle_coeff 4073 harmonic 57.59 175.81   # NEW 8
    angle_coeff 4074 harmonic 63.21 121.59   # NEW 7
    angle_coeff 4075 harmonic 49.19 120.33   # NEW 7
    angle_coeff 4076 harmonic 69.46 122.96   # NEW 10
    angle_coeff 4077 harmonic 72.80 123.59   # NEW 6
    angle_coeff 4078 harmonic 58.06 123.90   # NEW 11
    angle_coeff 4079 harmonic 49.38 122.29   # NEW 75
    angle_coeff 4080 harmonic 68.82 123.71   # NEW 6
    angle_coeff 4081 harmonic 70.64 120.72   # NEW 93
    angle_coeff 4082 harmonic 68.45 119.65   # NEW 5
    angle_coeff 4083 harmonic 73.66 123.08   # NEW 5
    angle_coeff 4084 harmonic 70.90 123.27   # NEW 42
    angle_coeff 4085 harmonic 70.47 122.52   # NEW 51
    angle_coeff 4086 harmonic 52.87 119.63   # NEW 10
    angle_coeff 4087 harmonic 52.76 119.62   # NEW 17
    angle_coeff 4088 harmonic 74.86 118.76   # NEW 5
    angle_coeff 4089 harmonic 65.41 120.06   # NEW 9
    angle_coeff 4090 harmonic 70.89 125.38   # NEW 10
    angle_coeff 4091 harmonic 63.81 112.33   # NEW 51
    angle_coeff 4092 harmonic 63.85 112.55   # NEW 5
    angle_coeff 4093 harmonic 64.02 111.98   # NEW 16
    angle_coeff 4094 harmonic 47.17 111.02   # NEW 9
    angle_coeff 4095 harmonic 66.85 110.47   # NEW 11
    angle_coeff 4096 harmonic 64.88 115.58   # NEW 6
    angle_coeff 4097 harmonic 66.43 113.39   # NEW 8
    angle_coeff 4098 harmonic 76.89 116.23   # NEW 6
    angle_coeff 4099 harmonic 64.24 111.44   # NEW 18
    angle_coeff 4100 harmonic 67.09 110.41   # NEW 6
    angle_coeff 4101 harmonic 68.00 111.05   # NEW 17
    angle_coeff 4102 harmonic 68.64 108.10   # NEW 16
    angle_coeff 4103 harmonic 61.87 111.10   # NEW 7
    angle_coeff 4104 harmonic 64.63 124.30   # NEW 10
    angle_coeff 4105 harmonic 67.44 119.85   # NEW 9
    angle_coeff 4106 harmonic 65.26 121.53   # NEW 12
    angle_coeff 4107 harmonic 58.19 120.31   # NEW 18
    angle_coeff 4108 harmonic 67.10 119.39   # NEW 16
    angle_coeff 4109 harmonic 48.15 120.03   # NEW 27
    angle_coeff 4110 harmonic 72.91 108.79   # NEW 165
    angle_coeff 4111 harmonic 68.56 123.72   # NEW 50
    angle_coeff 4112 harmonic 68.66 121.52   # NEW 11
    angle_coeff 4113 harmonic 69.26 120.96   # NEW 12
    angle_coeff 4114 harmonic 63.87 112.75   # NEW 8
    angle_coeff 4115 harmonic 67.74 114.39   # NEW 5
    angle_coeff 4116 harmonic 63.98 115.68   # NEW 8
    angle_coeff 4117 harmonic 61.82 124.89   # NEW 8
    angle_coeff 4118 harmonic 62.26 124.56   # NEW 32
    angle_coeff 4119 harmonic 64.60 121.42   # NEW 6
    angle_coeff 4120 harmonic 62.51 127.87   # NEW 11
    angle_coeff 4121 harmonic 67.46 122.45   # NEW 9
    angle_coeff 4122 harmonic 64.64 115.68   # NEW 6
    angle_coeff 4123 harmonic 66.35 119.41   # NEW 7
    angle_coeff 4124 harmonic 64.98 118.14   # NEW 7
    angle_coeff 4125 harmonic 59.22 128.36   # NEW 8
    angle_coeff 4126 harmonic 67.42 121.08   # NEW 28
    angle_coeff 4127 harmonic 65.78 128.95   # NEW 117
    angle_coeff 4128 harmonic 66.16 116.87   # NEW 16
    angle_coeff 4129 harmonic 67.51 122.35   # NEW 5
    angle_coeff 4130 harmonic 62.33 120.70   # NEW 12
    angle_coeff 4131 harmonic 47.13 115.45   # NEW 5
    angle_coeff 4132 harmonic 59.37 121.61   # NEW 12
    angle_coeff 4133 harmonic 58.09 119.85   # NEW 11
    angle_coeff 4134 harmonic 67.11 119.88   # NEW 6
    angle_coeff 4135 harmonic 61.67 127.94   # NEW 12
    angle_coeff 4136 harmonic 63.47 112.52   # NEW 10
    angle_coeff 4137 harmonic 65.61 127.75   # NEW 12
    angle_coeff 4138 harmonic 67.94 118.08   # NEW 10
    angle_coeff 4139 harmonic 63.88 117.46   # NEW 13
    angle_coeff 4140 harmonic 68.65 113.75   # NEW 14
    angle_coeff 4141 harmonic 63.95 116.25   # NEW 6
    angle_coeff 4142 harmonic 46.93 114.88   # NEW 19
    angle_coeff 4143 harmonic 63.94 110.39   # NEW 5
    angle_coeff 4144 harmonic 68.48 124.90   # NEW 48
    angle_coeff 4145 harmonic 73.25 117.26   # NEW 16
    angle_coeff 4146 harmonic 63.25 117.04   # NEW 13
    angle_coeff 4147 harmonic 63.13 120.55   # NEW 7
    angle_coeff 4148 harmonic 69.31 121.54   # NEW 7
    angle_coeff 4149 harmonic 70.88 128.17   # NEW 7
    angle_coeff 4150 harmonic 69.29 129.66   # NEW 7
    angle_coeff 4151 harmonic 69.90 122.68   # NEW 16
    angle_coeff 4152 harmonic 62.75 124.92   # NEW 5
    angle_coeff 4153 harmonic 60.81 127.60   # NEW 14
    angle_coeff 4154 harmonic 62.75 123.08   # NEW 13
    angle_coeff 4155 harmonic 65.39 116.99   # NEW 7
    angle_coeff 4156 harmonic 74.78 114.48   # NEW 15
    angle_coeff 4157 harmonic 71.01 117.59   # NEW 62
    angle_coeff 4158 harmonic 63.76 121.10   # NEW 10
    angle_coeff 4159 harmonic 65.09 125.10   # NEW 9
    angle_coeff 4160 harmonic 67.03 123.45   # NEW 39
    angle_coeff 4161 harmonic 64.92 126.05   # NEW 30
    angle_coeff 4162 harmonic 63.93 122.13   # NEW 10
    angle_coeff 4163 harmonic 69.42 123.82   # NEW 14
    angle_coeff 4164 harmonic 63.17 120.93   # NEW 6
    angle_coeff 4165 harmonic 68.22 124.90   # NEW 5
    angle_coeff 4166 harmonic 46.77 118.19   # NEW 8
    angle_coeff 4167 harmonic 72.43 116.98   # NEW 46
    angle_coeff 4168 harmonic 67.07 111.46   # NEW 20
    angle_coeff 4169 harmonic 69.47 125.58   # NEW 13
    angle_coeff 4170 harmonic 75.54 111.61   # NEW 6
    angle_coeff 4171 harmonic 57.87 119.51   # NEW 24
    angle_coeff 4172 harmonic 48.64 125.58   # NEW 11
    angle_coeff 4173 harmonic 72.67 117.85   # NEW 7
    angle_coeff 4174 harmonic 69.29 119.19   # NEW 5
    angle_coeff 4175 harmonic 70.32 123.78   # NEW 10
    angle_coeff 4176 harmonic 63.79 118.48   # NEW 8
    angle_coeff 4177 harmonic 67.26 120.75   # NEW 6
    angle_coeff 4178 harmonic 65.76 119.90   # NEW 5
    angle_coeff 4179 harmonic 63.84 119.62   # NEW 14
    angle_coeff 4180 harmonic 57.99 114.22   # NEW 6
    angle_coeff 4181 harmonic 46.71 116.86   # NEW 74
    angle_coeff 4182 harmonic 67.87 115.51   # NEW 93
    angle_coeff 4183 harmonic 68.60 115.58   # NEW 8
    angle_coeff 4184 harmonic 61.21 117.73   # NEW 5
    angle_coeff 4185 harmonic 63.79 117.98   # NEW 8
    angle_coeff 4186 harmonic 63.28 130.36   # NEW 5
    angle_coeff 4187 harmonic 63.46 120.89   # NEW 16
    angle_coeff 4188 harmonic 64.57 118.32   # NEW 15
    angle_coeff 4189 harmonic 47.52 115.40   # NEW 29
    angle_coeff 4190 harmonic 57.67 115.40   # NEW 6
    angle_coeff 4191 harmonic 67.31 119.17   # NEW 8
    angle_coeff 4192 harmonic 72.72 88.22   # NEW 19
    angle_coeff 4193 harmonic 57.29 117.93   # NEW 12
    angle_coeff 4194 harmonic 69.29 116.89   # NEW 11
    angle_coeff 4195 harmonic 60.53 137.74   # NEW 13
    angle_coeff 4196 harmonic 49.02 123.76   # NEW 5
    angle_coeff 4197 harmonic 72.03 120.03   # NEW 6
    angle_coeff 4198 harmonic 69.48 121.52   # NEW 12
    angle_coeff 4199 harmonic 69.59 121.43   # NEW 6
    angle_coeff 4200 harmonic 68.34 117.92   # NEW 5
    angle_coeff 4201 harmonic 69.09 113.78   # NEW 21
    angle_coeff 4202 harmonic 52.58 116.36   # NEW 7
    angle_coeff 4203 harmonic 49.72 115.81   # NEW 7
    angle_coeff 4204 harmonic 74.58 118.13   # NEW 6
    angle_coeff 4205 harmonic 64.40 117.23   # NEW 6
    angle_coeff 4206 harmonic 71.89 112.91   # NEW 12
    angle_coeff 4207 harmonic 73.31 118.13   # NEW 6
    angle_coeff 4208 harmonic 62.70 130.80   # NEW 12
    angle_coeff 4209 harmonic 64.25 117.76   # NEW 10
    angle_coeff 4210 harmonic 70.16 114.88   # NEW 5
    angle_coeff 4211 harmonic 52.29 120.21   # NEW 6
    angle_coeff 4212 harmonic 56.97 178.60   # NEW 6
    angle_coeff 4213 harmonic 58.68 179.67   # NEW 7
    angle_coeff 4214 harmonic 74.43 110.37   # NEW 10
    angle_coeff 4215 harmonic 68.78 119.43   # NEW 21
    angle_coeff 4216 harmonic 71.31 125.72   # NEW 5
    angle_coeff 4217 harmonic 47.37 113.84   # NEW 15
    angle_coeff 4218 harmonic 45.50 117.25   # NEW 17
    angle_coeff 4219 harmonic 74.69 88.02   # NEW 14
    angle_coeff 4220 harmonic 58.47 121.33   # NEW 13
    angle_coeff 4221 harmonic 73.01 108.92   # NEW 9
    angle_coeff 4222 harmonic 70.37 118.47   # NEW 6
    angle_coeff 4223 harmonic 62.84 111.09   # NEW 7
    angle_coeff 4224 harmonic 63.76 119.46   # NEW 7
    angle_coeff 4225 harmonic 65.88 120.96   # NEW 20
    angle_coeff 4226 harmonic 63.05 126.61   # NEW 8
    angle_coeff 4227 harmonic 68.79 121.11   # NEW 12
    angle_coeff 4228 harmonic 62.21 131.83   # NEW 146
    angle_coeff 4229 harmonic 73.55 108.41   # NEW 9
    angle_coeff 4230 harmonic 68.36 123.58   # NEW 12
    angle_coeff 4231 harmonic 61.66 116.05   # NEW 6
    angle_coeff 4232 harmonic 63.47 119.92   # NEW 20
    angle_coeff 4233 harmonic 68.23 119.66   # NEW 5
    angle_coeff 4234 harmonic 61.22 122.91   # NEW 23
    angle_coeff 4235 harmonic 63.58 112.97   # NEW 7
    angle_coeff 4236 harmonic 50.74 115.24   # NEW 10
    angle_coeff 4237 harmonic 70.34 117.52   # NEW 198
    angle_coeff 4238 harmonic 41.93 108.44   # NEW 12
    angle_coeff 4239 harmonic 70.23 103.63   # NEW 9
    angle_coeff 4240 harmonic 46.41 95.38   # NEW 8
    angle_coeff 4241 harmonic 65.61 92.43   # NEW 14
    angle_coeff 4242 harmonic 62.52 95.11   # NEW 17
    angle_coeff 4243 harmonic 65.92 104.49   # NEW 17
    angle_coeff 4244 harmonic 61.24 102.19   # NEW 12
    angle_coeff 4245 harmonic 60.36 105.09   # NEW 5
    angle_coeff 4246 harmonic 62.86 103.47   # NEW 11
    angle_coeff 4247 harmonic 65.53 97.20   # NEW 6
    angle_coeff 4248 harmonic 66.36 102.40   # NEW 5
    dihedral_coeff 1 fourier 1 0.3 2 180.0    #
    dihedral_coeff 2 fourier 1 0.0 2 180.0    #
    dihedral_coeff 3 fourier 1 0.0 2 180.0    # same as X-c-c1-X
    dihedral_coeff 4 fourier 1 0.0 2 180.0    #
    dihedral_coeff 5 fourier 1 2.175 2 180.0    # intrpol.bsd.on C6H6
    dihedral_coeff 6 fourier 1 2.175 2 180.0    # intrpol.bsd.on C6H6
    dihedral_coeff 7 fourier 1 2.175 2 180.0    # intrpol.bsd.on C6H6
    dihedral_coeff 8 fourier 1 2.175 2 180.0    # intrpol.bsd.on C6H6
    dihedral_coeff 9 fourier 1 2.175 2 180.0    # intrpol.bsd.on C6H6
    dihedral_coeff 10 fourier 1 0.0 2 180.0    # JCC, 7, (1986), 230
    dihedral_coeff 11 fourier 1 0.0 2 180.0    # JCC, 7, (1986), 230
    dihedral_coeff 12 fourier 1 0.0 2 180.0    # JCC, 7, (1986), 230
    dihedral_coeff 13 fourier 1 1.0 2 180.0    # optimized by Junmei Wang, Jan-2013
    dihedral_coeff 14 fourier 1 2.875 2 180.0    # statistic value
    dihedral_coeff 15 fourier 1 2.875 2 180.0    # statistic value
    dihedral_coeff 16 fourier 1 2.5 2 180.0    # AA,NMA (no c-n3, c-n4, c-nh)
    dihedral_coeff 17 fourier 1 4.15 2 180.0    # double bond, same as X-c2-n2-X
    dihedral_coeff 18 fourier 1 4.0 2 180.0    # same as X-C-NC-X
    dihedral_coeff 19 fourier 1 4.0 2 180.0    # same as X-C-NC-X
    dihedral_coeff 20 fourier 1 0.2 2 180.0    # single bond
    dihedral_coeff 21 fourier 1 0.2 2 180.0    # single bond
    dihedral_coeff 22 fourier 2 1.45 2 180.0 0.35 4 180.0    #
    dihedral_coeff 23 fourier 1 0.45 2 180.0    #
    dihedral_coeff 24 fourier 1 2.3 2 180.0    # Junmei et al, 1999
    dihedral_coeff 25 fourier 1 2.7 2 180.0    # Junmei et al, 1999
    dihedral_coeff 26 fourier 1 6.65 2 180.0    # double bond, same as X-c2-p2-X
    dihedral_coeff 27 fourier 1 2.0 2 180.0    # estimated
    dihedral_coeff 28 fourier 1 2.0 2 180.0    # estimated
    dihedral_coeff 29 fourier 1 0.0 2 180.0    # single bond
    dihedral_coeff 30 fourier 1 0.0 2 180.0    # single bond
    dihedral_coeff 31 fourier 1 1.55 2 180.0    #
    dihedral_coeff 32 fourier 1 1.35 2 180.0    #
    dihedral_coeff 33 fourier 1 1.35 2 180.0    #
    dihedral_coeff 34 fourier 1 1.0 2 0.0    #
    dihedral_coeff 35 fourier 1 1.0 2 0.0    #
    dihedral_coeff 36 fourier 1 2.25 2 180.0    #
    dihedral_coeff 37 fourier 1 3.1 2 180.0    #
    dihedral_coeff 38 fourier 1 0.2 2 180.0    #
    dihedral_coeff 39 fourier 1 0.2 2 180.0    #
    dihedral_coeff 40 fourier 1 0.5 2 0.0    #
    dihedral_coeff 41 fourier 1 0.5 2 0.0    #
    dihedral_coeff 42 fourier 1 0.0 2 180.0    # for both triple and single bonds
    dihedral_coeff 43 fourier 1 0.0 2 180.0    # for both triple and single bonds
    dihedral_coeff 44 fourier 1 0.0 2 180.0    # for both triple and single bonds
    dihedral_coeff 45 fourier 1 0.0 2 180.0    # for both triple and single bonds
    dihedral_coeff 46 fourier 1 0.0 2 180.0    # for both triple and single bonds
    dihedral_coeff 47 fourier 1 0.0 2 180.0    # for both triple and single bonds
    dihedral_coeff 48 fourier 1 0.0 2 180.0    #
    dihedral_coeff 49 fourier 1 0.0 2 180.0    #
    dihedral_coeff 50 fourier 1 0.0 2 180.0    #
    dihedral_coeff 51 fourier 1 0.0 2 180.0    #
    dihedral_coeff 52 fourier 1 0.0 2 180.0    #
    dihedral_coeff 53 fourier 1 0.0 2 180.0    #
    dihedral_coeff 54 fourier 1 0.0 2 180.0    #
    dihedral_coeff 55 fourier 1 0.0 2 180.0    #
    dihedral_coeff 56 fourier 1 0.0 2 180.0    #
    dihedral_coeff 57 fourier 1 0.0 2 180.0    #
    dihedral_coeff 58 fourier 1 0.0 2 180.0    #
    dihedral_coeff 59 fourier 1 0.0 2 180.0    #
    dihedral_coeff 60 fourier 1 0.0 2 180.0    #
    dihedral_coeff 61 fourier 1 0.0 2 180.0    #
    dihedral_coeff 62 fourier 1 0.0 2 180.0    #
    dihedral_coeff 63 fourier 1 0.0 2 180.0    #
    dihedral_coeff 64 fourier 1 0.0 2 180.0    #
    dihedral_coeff 65 fourier 1 0.0 2 180.0    #
    dihedral_coeff 66 fourier 1 0.0 2 180.0    #
    dihedral_coeff 67 fourier 1 0.0 2 180.0    #
    dihedral_coeff 68 fourier 1 0.0 2 180.0    #
    dihedral_coeff 69 fourier 1 0.0 2 180.0    #
    dihedral_coeff 70 fourier 1 0.0 2 180.0    #
    dihedral_coeff 71 fourier 1 0.0 2 180.0    #
    dihedral_coeff 72 fourier 1 0.0 2 180.0    #
    dihedral_coeff 73 fourier 1 0.0 2 180.0    #
    dihedral_coeff 74 fourier 1 0.0 2 180.0    #
    dihedral_coeff 75 fourier 1 0.0 2 180.0    #
    dihedral_coeff 76 fourier 1 0.0 2 180.0    #
    dihedral_coeff 77 fourier 1 0.0 2 180.0    #
    dihedral_coeff 78 fourier 1 0.0 2 180.0    #
    dihedral_coeff 79 fourier 1 0.0 2 180.0    #
    dihedral_coeff 80 fourier 1 0.0 2 180.0    #
    dihedral_coeff 81 fourier 1 0.0 2 180.0    #
    dihedral_coeff 82 fourier 1 0.0 2 180.0    #
    dihedral_coeff 83 fourier 1 0.0 2 180.0    #
    dihedral_coeff 84 fourier 1 0.0 2 180.0    #
    dihedral_coeff 85 fourier 1 0.0 2 180.0    #
    dihedral_coeff 86 fourier 1 0.0 2 180.0    #
    dihedral_coeff 87 fourier 1 0.0 2 180.0    #
    dihedral_coeff 88 fourier 1 0.0 2 180.0    #
    dihedral_coeff 89 fourier 1 0.0 2 180.0    #
    dihedral_coeff 90 fourier 1 0.0 2 180.0    #
    dihedral_coeff 91 fourier 1 6.65 2 180.0    # c2=c2 double bond, intrpol.bsd.on C6H6
    dihedral_coeff 92 fourier 1 6.65 2 180.0    # c2=c2 double bond, intrpol.bsd.on C6H6
    dihedral_coeff 93 fourier 1 6.65 2 180.0    # c2=c2 double bond, intrpol.bsd.on C6H6
    dihedral_coeff 94 fourier 1 6.65 2 180.0    # c2=c2 double bond, intrpol.bsd.on C6H6
    dihedral_coeff 95 fourier 1 1.0 2 180.0    # c2-c2 single bond, parm99
    dihedral_coeff 96 fourier 1 1.0 2 180.0    # c2-c2 single bond, parm99
    dihedral_coeff 97 fourier 1 4.0 2 180.0    # statistic value of parm94
    dihedral_coeff 98 fourier 1 4.0 2 180.0    # statistic value of parm94
    dihedral_coeff 99 fourier 1 4.0 2 180.0    # statistic value of parm94
    dihedral_coeff 100 fourier 1 0.0 2 0.0    # JCC,7,(1986),230
    dihedral_coeff 101 fourier 1 0.7 2 180.0    # optimized by Junmei Wang, March 2013
    dihedral_coeff 102 fourier 1 0.65 2 180.0    #
    dihedral_coeff 103 fourier 1 4.15 2 180.0    # double bond, parm99
    dihedral_coeff 104 fourier 1 4.15 2 180.0    # double bond, parm99
    dihedral_coeff 105 fourier 1 4.15 2 180.0    # double bond, parm99
    dihedral_coeff 106 fourier 1 0.8 2 180.0    # single bond
    dihedral_coeff 107 fourier 1 0.8 2 180.0    # single bond
    dihedral_coeff 108 fourier 1 4.75 2 180.0    # statistic value from parm94
    dihedral_coeff 109 fourier 1 4.75 2 180.0    # statistic value from parm94
    dihedral_coeff 110 fourier 1 4.75 2 180.0    # statistic value from parm94
    dihedral_coeff 111 fourier 1 4.75 2 180.0    # statistiv value from parm94
    dihedral_coeff 112 fourier 1 4.75 2 180.0    # statistic value from parm94
    dihedral_coeff 113 fourier 1 4.75 2 180.0    # statistiv value from parm94
    dihedral_coeff 114 fourier 1 0.3 2 180.0    # intrpol.
    dihedral_coeff 115 fourier 1 0.0 3 180.0    # intrpol.
    dihedral_coeff 116 fourier 1 0.625 2 180.0    #
    dihedral_coeff 117 fourier 1 1.7 2 180.0    # statistic value from parm94
    dihedral_coeff 118 fourier 1 1.7 2 180.0    # statistic value from parm94
    dihedral_coeff 119 fourier 1 0.675 2 180.0    #
    dihedral_coeff 120 fourier 1 0.75 2 180.0    #
    dihedral_coeff 121 fourier 1 1.05 2 180.0    # parm99
    dihedral_coeff 122 fourier 1 1.05 2 180.0    # parm99
    dihedral_coeff 123 fourier 1 6.65 2 180.0    # double bond
    dihedral_coeff 124 fourier 1 6.65 2 180.0    # double bond
    dihedral_coeff 125 fourier 1 6.65 2 180.0    # double bond
    dihedral_coeff 126 fourier 1 6.65 2 180.0    # double bond
    dihedral_coeff 127 fourier 1 0.95 2 180.0    # single bond
    dihedral_coeff 128 fourier 1 0.95 2 180.0    # single bond
    dihedral_coeff 129 fourier 1 4.75 2 180.0    # estimated
    dihedral_coeff 130 fourier 1 4.75 2 180.0    # estimated
    dihedral_coeff 131 fourier 1 4.75 2 180.0    # estimated
    dihedral_coeff 132 fourier 1 4.75 2 180.0    # estimated
    dihedral_coeff 133 fourier 1 4.75 2 180.0    # estimated
    dihedral_coeff 134 fourier 1 4.75 2 180.0    # estimated
    dihedral_coeff 135 fourier 1 0.45 2 180.0    #
    dihedral_coeff 136 fourier 1 6.65 2 180.0    # c2=p4 double bond !!!
    dihedral_coeff 137 fourier 1 6.65 2 180.0    # c2=p4 double bond !!!
    dihedral_coeff 138 fourier 1 6.65 2 180.0    # c2=p4 double bond !!!
    dihedral_coeff 139 fourier 1 0.325 2 0.0    #
    dihedral_coeff 140 fourier 1 0.325 2 0.0    #
    dihedral_coeff 141 fourier 1 0.325 2 0.0    #
    dihedral_coeff 142 fourier 1 6.65 2 180.0    # c2=p5 double bond !!!
    dihedral_coeff 143 fourier 1 6.65 2 180.0    # c2=p5 double bond !!!
    dihedral_coeff 144 fourier 1 6.65 2 180.0    # c2=p5 double bond !!!
    dihedral_coeff 145 fourier 1 1.43333333333 2 180.0    #
    dihedral_coeff 146 fourier 1 1.43333333333 2 180.0    #
    dihedral_coeff 147 fourier 1 1.43333333333 2 180.0    #
    dihedral_coeff 148 fourier 1 0.5 2 180.0    #
    dihedral_coeff 149 fourier 1 1.1 2 180.0    #
    dihedral_coeff 150 fourier 1 6.65 2 180.0    # c2=s4 double bond !!!
    dihedral_coeff 151 fourier 1 6.65 2 180.0    # c2=s4 double bond !!!
    dihedral_coeff 152 fourier 1 6.65 2 180.0    # c2=s4 double bond !!!
    dihedral_coeff 153 fourier 1 0.6 2 0.0    #
    dihedral_coeff 154 fourier 1 0.6 2 0.0    #
    dihedral_coeff 155 fourier 1 0.6 2 0.0    #
    dihedral_coeff 156 fourier 1 6.65 2 180.0    # c2=s6 double bond !!!
    dihedral_coeff 157 fourier 1 6.65 2 180.0    # c2=s6 double bond !!!
    dihedral_coeff 158 fourier 1 6.65 2 180.0    # c2=s6 double bond !!!
    dihedral_coeff 159 fourier 1 1.26666666667 2 180.0    #
    dihedral_coeff 160 fourier 1 1.26666666667 2 180.0    #
    dihedral_coeff 161 fourier 1 1.26666666667 2 180.0    #
    dihedral_coeff 162 fourier 1 0.155555555556 3 0.0    # JCC,7,(1986),230
    dihedral_coeff 163 fourier 1 0.155555555556 3 0.0    # same as X-c3-c3-X
    dihedral_coeff 164 fourier 1 0.155555555556 3 0.0    # same as X-c3-c3-X
    dihedral_coeff 165 fourier 1 0.0 2 0.0    # JCC,7,(1986),230
    dihedral_coeff 166 fourier 1 0.0 2 0.0    # JCC,7,(1986),230
    dihedral_coeff 167 fourier 1 0.0 2 0.0    # same as X-c3-n-X
    dihedral_coeff 168 fourier 1 0.0 2 0.0    # same as X-c3-n-X
    dihedral_coeff 169 fourier 1 0.0 3 0.0    # JCC,7,(1986),230
    dihedral_coeff 170 fourier 1 0.0 3 0.0    # JCC,7,(1986),230
    dihedral_coeff 171 fourier 1 0.0 3 0.0    # JCC,7,(1986),230
    dihedral_coeff 172 fourier 1 0.3 3 0.0    # Junmei et al, 1999
    dihedral_coeff 173 fourier 1 0.155555555556 3 0.0    # JCC,7,(1986),230
    dihedral_coeff 174 fourier 1 0.0 2 0.0    # JCC,7,(1986),230
    dihedral_coeff 175 fourier 1 0.0 2 0.0    # JCC,7,(1986),230
    dihedral_coeff 176 fourier 1 0.0 2 0.0    # JCC,7,(1986),230
    dihedral_coeff 177 fourier 1 0.166666666667 3 0.0    # JCC,7,(1986),230
    dihedral_coeff 178 fourier 1 0.383333333333 3 0.0    # JCC,7,(1986),230
    dihedral_coeff 179 fourier 1 0.266666666667 2 180.0    #
    dihedral_coeff 180 fourier 1 0.266666666667 2 180.0    #
    dihedral_coeff 181 fourier 1 0.266666666667 2 180.0    #
    dihedral_coeff 182 fourier 1 0.133333333333 3 0.0    #
    dihedral_coeff 183 fourier 1 0.133333333333 3 0.0    #
    dihedral_coeff 184 fourier 1 0.133333333333 3 0.0    #
    dihedral_coeff 185 fourier 1 0.0222222222222 3 0.0    #
    dihedral_coeff 186 fourier 1 0.0222222222222 3 0.0    #
    dihedral_coeff 187 fourier 1 0.25 3 0.0    # JCC,7,(1986),230
    dihedral_coeff 188 fourier 1 0.333333333333 3 0.0    # JCC,7,(1986),230
    dihedral_coeff 189 fourier 1 0.2 3 0.0    #
    dihedral_coeff 190 fourier 1 0.2 3 0.0    #
    dihedral_coeff 191 fourier 1 0.144444444444 3 0.0    #
    dihedral_coeff 192 fourier 1 0.144444444444 3 0.0    #
    dihedral_coeff 193 fourier 1 0.0 3 0.0    # same as X-c3-ca-X
    dihedral_coeff 194 fourier 1 0.0 3 0.0    # same as X-c3-ca-X
    dihedral_coeff 195 fourier 1 3.625 2 180.0    # intrpol.bsd.on C6H6
    dihedral_coeff 196 fourier 1 3.625 2 180.0    # intrpol.bsd.on C6H6
    dihedral_coeff 197 fourier 1 3.625 2 180.0    # intrpol.bsd.on C6H6
    dihedral_coeff 198 fourier 1 1.0 2 180.0    # estimated, intrpol.
    dihedral_coeff 199 fourier 1 1.0 2 180.0    # estimated, intrpol.
    dihedral_coeff 200 fourier 1 0.45 2 180.0    #
    dihedral_coeff 201 fourier 1 0.0 3 180.0    #
    dihedral_coeff 202 fourier 1 0.0 3 180.0    #
    dihedral_coeff 203 fourier 1 0.0 3 180.0    #
    dihedral_coeff 204 fourier 1 1.75 2 0.0    #
    dihedral_coeff 205 fourier 1 0.3 2 180.0    #
    dihedral_coeff 206 fourier 1 4.8 2 180.0    # same as X-CA-NC-X
    dihedral_coeff 207 fourier 1 4.8 2 180.0    # same as X-CA-NC-X
    dihedral_coeff 208 fourier 1 4.8 2 180.0    # same as X-CA-NC-X
    dihedral_coeff 209 fourier 1 1.05 2 180.0    #
    dihedral_coeff 210 fourier 1 1.05 2 180.0    # same as X-ca-nh-X
    dihedral_coeff 211 fourier 1 1.05 2 180.0    # same as X-ca-nh-X
    dihedral_coeff 212 fourier 1 0.6 2 180.0    #
    dihedral_coeff 213 fourier 1 0.9 2 180.0    # Junmei et al, 99
    dihedral_coeff 214 fourier 1 0.9 2 180.0    # same as X-ca-oh-X
    dihedral_coeff 215 fourier 1 0.6 2 180.0    #
    dihedral_coeff 216 fourier 1 0.6 2 180.0    # same as X-ca-p2-X
    dihedral_coeff 217 fourier 1 0.6 2 180.0    # same as X-ca-p2-X
    dihedral_coeff 218 fourier 1 4.8 2 180.0    # estimated, intrpol
    dihedral_coeff 219 fourier 1 4.8 2 180.0    # estimated, intrpol
    dihedral_coeff 220 fourier 1 0.0 2 180.0    #
    dihedral_coeff 221 fourier 1 0.525 2 180.0    #
    dihedral_coeff 222 fourier 1 0.525 2 180.0    # estimated, same as X-ca-p4-X
    dihedral_coeff 223 fourier 1 1.46666666667 2 180.0    #
    dihedral_coeff 224 fourier 1 1.46666666667 2 180.0    # estimated, same as X-ca-p5-X
    dihedral_coeff 225 fourier 1 0.0 2 180.0    #
    dihedral_coeff 226 fourier 1 0.4 2 180.0    #
    dihedral_coeff 227 fourier 1 0.3 2 0.0    #
    dihedral_coeff 228 fourier 1 0.3 2 0.0    # estimated, same as X-ca-s4-X
    dihedral_coeff 229 fourier 1 1.3 2 180.0    #
    dihedral_coeff 230 fourier 1 1.3 2 180.0    # estimated, same as X-ca-s6-X
    dihedral_coeff 231 fourier 1 1.65 2 180.0    # statistic value from parm94
    dihedral_coeff 232 fourier 1 1.65 2 180.0    # statistic value from parm94
    dihedral_coeff 233 fourier 1 1.15 2 0.0    #
    dihedral_coeff 234 fourier 1 0.4 2 0.0    #
    dihedral_coeff 235 fourier 1 0.4 2 0.0    #
    dihedral_coeff 236 fourier 1 0.4 2 0.0    #
    dihedral_coeff 237 fourier 1 1.075 2 0.0    #
    dihedral_coeff 238 fourier 1 0.95 2 0.0    #
    dihedral_coeff 239 fourier 1 0.7 2 0.0    #
    dihedral_coeff 240 fourier 1 4.8 2 180.0    # estimated, intrpol.
    dihedral_coeff 241 fourier 1 4.8 2 180.0    # estimated, intrpol.
    dihedral_coeff 242 fourier 1 1.1 2 0.0    #
    dihedral_coeff 243 fourier 1 1.375 2 180.0    #
    dihedral_coeff 244 fourier 1 1.5 2 0.0    #
    dihedral_coeff 245 fourier 1 1.1 2 0.0    #
    dihedral_coeff 246 fourier 1 1.0 2 180.0    #
    dihedral_coeff 247 fourier 1 1.0 2 180.0    #
    dihedral_coeff 248 fourier 1 1.0 2 180.0    # estimated, intrpol.
    dihedral_coeff 249 fourier 1 4.8 2 180.0    # estimated, intrpol.
    dihedral_coeff 250 fourier 1 4.8 2 180.0    #
    dihedral_coeff 251 fourier 1 2.25 2 0.0    #
    dihedral_coeff 252 fourier 1 0.325 2 0.0    #
    dihedral_coeff 253 fourier 1 0.325 2 0.0    #
    dihedral_coeff 254 fourier 1 2.2 2 180.0    #
    dihedral_coeff 255 fourier 1 2.2 2 180.0    #
    dihedral_coeff 256 fourier 1 1.1 2 0.0    #
    dihedral_coeff 257 fourier 1 1.5 2 0.0    #
    dihedral_coeff 258 fourier 1 1.5 3 0.0    #
    dihedral_coeff 259 fourier 1 1.5 3 0.0    #
    dihedral_coeff 260 fourier 1 1.1 2 180.0    #
    dihedral_coeff 261 fourier 1 1.1 2 180.0    #
    dihedral_coeff 262 fourier 1 0.0 2 180.0    #
    dihedral_coeff 263 fourier 1 0.0 2 180.0    #
    dihedral_coeff 264 fourier 1 0.0 2 180.0    #
    dihedral_coeff 265 fourier 1 0.0 2 180.0    #
    dihedral_coeff 266 fourier 1 0.0 2 180.0    #
    dihedral_coeff 267 fourier 1 0.0 2 180.0    #
    dihedral_coeff 268 fourier 1 0.0 2 180.0    #
    dihedral_coeff 269 fourier 1 0.0 2 180.0    #
    dihedral_coeff 270 fourier 1 0.0 2 180.0    #
    dihedral_coeff 271 fourier 1 0.0 2 180.0    #
    dihedral_coeff 272 fourier 1 0.0 2 180.0    #
    dihedral_coeff 273 fourier 1 0.0 2 180.0    #
    dihedral_coeff 274 fourier 1 0.0 2 180.0    #
    dihedral_coeff 275 fourier 1 0.0 2 180.0    #
    dihedral_coeff 276 fourier 1 0.0 2 180.0    #
    dihedral_coeff 277 fourier 1 0.0 2 180.0    #
    dihedral_coeff 278 fourier 1 0.0 2 180.0    #
    dihedral_coeff 279 fourier 1 0.0 2 180.0    #
    dihedral_coeff 280 fourier 1 0.0 2 180.0    #
    dihedral_coeff 281 fourier 1 0.0 2 180.0    #
    dihedral_coeff 282 fourier 1 0.0 2 180.0    #
    dihedral_coeff 283 fourier 1 0.0 2 180.0    #
    dihedral_coeff 284 fourier 1 0.0 2 180.0    #
    dihedral_coeff 285 fourier 1 0.0 2 180.0    #
    dihedral_coeff 286 fourier 1 0.0 2 180.0    #
    dihedral_coeff 287 fourier 1 0.0 2 180.0    #
    dihedral_coeff 288 fourier 1 0.0 2 180.0    #
    dihedral_coeff 289 fourier 1 0.0 2 180.0    #
    dihedral_coeff 290 fourier 1 0.0 2 180.0    #
    dihedral_coeff 291 fourier 1 0.0 2 180.0    #
    dihedral_coeff 292 fourier 1 0.0 2 180.0    #
    dihedral_coeff 293 fourier 1 0.0 2 180.0    #
    dihedral_coeff 294 fourier 1 0.0 2 180.0    #
    dihedral_coeff 295 fourier 1 0.0 2 180.0    #
    dihedral_coeff 296 fourier 1 0.0 2 180.0    #
    dihedral_coeff 297 fourier 1 0.0 2 180.0    #
    dihedral_coeff 298 fourier 1 0.0 2 180.0    #
    dihedral_coeff 299 fourier 1 0.0 2 180.0    #
    dihedral_coeff 300 fourier 1 0.0 2 180.0    #
    dihedral_coeff 301 fourier 1 0.0 2 180.0    #
    dihedral_coeff 302 fourier 1 0.0 2 180.0    #
    dihedral_coeff 303 fourier 1 0.0 2 180.0    #
    dihedral_coeff 304 fourier 1 0.0 2 180.0    #
    dihedral_coeff 305 fourier 1 0.0 2 180.0    #
    dihedral_coeff 306 fourier 2 3.0 2 180.0 2.8 1 0.0    # double bond
    dihedral_coeff 307 fourier 2 3.0 2 180.0 2.8 1 0.0    # double bond
    dihedral_coeff 308 fourier 2 3.0 2 180.0 2.8 1 0.0    # double bond
    dihedral_coeff 309 fourier 2 3.0 2 180.0 2.8 1 0.0    # double bond
    dihedral_coeff 310 fourier 1 1.2 2 180.0    # single bond, intrpol
    dihedral_coeff 311 fourier 1 1.2 2 180.0    # single bond, intrpol
    dihedral_coeff 312 fourier 1 4.0 2 180.0    # estimated, intrpol
    dihedral_coeff 313 fourier 1 4.0 2 180.0    # estimated, intrpol
    dihedral_coeff 314 fourier 1 4.0 2 180.0    # estimated, intrpol
    dihedral_coeff 315 fourier 2 3.0 2 180.0 2.8 1 0.0    # same as X-n2-n2-X
    dihedral_coeff 316 fourier 2 3.0 2 180.0 2.8 1 0.0    # same as X-n2-n2-X
    dihedral_coeff 317 fourier 1 6.1 2 180.0    #
    dihedral_coeff 318 fourier 1 6.1 2 180.0    #
    dihedral_coeff 319 fourier 1 6.1 2 180.0    #
    dihedral_coeff 320 fourier 1 8.0 2 180.0    #
    dihedral_coeff 321 fourier 1 8.0 2 180.0    #
    dihedral_coeff 322 fourier 1 8.0 2 180.0    #
    dihedral_coeff 323 fourier 1 1.7 2 180.0    #
    dihedral_coeff 324 fourier 1 1.7 2 180.0    #
    dihedral_coeff 325 fourier 1 1.7 2 180.0    #
    dihedral_coeff 326 fourier 1 4.8 2 180.0    # estimated, intrpol.
    dihedral_coeff 327 fourier 1 4.8 2 180.0    # estimated, intrpol.
    dihedral_coeff 328 fourier 1 2.8 2 180.0    #
    dihedral_coeff 329 fourier 1 2.8 2 180.0    #
    dihedral_coeff 330 fourier 1 2.8 2 180.0    #
    dihedral_coeff 331 fourier 1 0.75 2 180.0    #
    dihedral_coeff 332 fourier 1 0.75 2 180.0    #
    dihedral_coeff 333 fourier 1 0.75 2 180.0    #
    dihedral_coeff 334 fourier 1 3.2 2 180.0    #
    dihedral_coeff 335 fourier 1 3.2 2 180.0    #
    dihedral_coeff 336 fourier 1 3.2 2 180.0    #
    dihedral_coeff 337 fourier 1 3.0 2 180.0    #
    dihedral_coeff 338 fourier 1 3.0 2 180.0    #
    dihedral_coeff 339 fourier 1 3.0 2 180.0    #
    dihedral_coeff 340 fourier 1 4.8 2 180.0    # estimated, intrpol.
    dihedral_coeff 341 fourier 1 4.8 2 180.0    # estimated, intrpol.
    dihedral_coeff 342 fourier 1 5.4 2 180.0    # estimated, intrpol.
    dihedral_coeff 343 fourier 1 5.4 2 180.0    # estimated, intrpol.
    dihedral_coeff 344 fourier 1 5.4 2 180.0    # estimated, intrpol.
    dihedral_coeff 345 fourier 1 5.4 2 180.0    # estimated, intrpol.
    dihedral_coeff 346 fourier 1 5.4 2 180.0    # estimated, intrpol.
    dihedral_coeff 347 fourier 1 5.4 2 180.0    # estimated, intrpol.
    dihedral_coeff 348 fourier 1 5.4 2 180.0    # estimated, intrpol.
    dihedral_coeff 349 fourier 1 5.4 2 180.0    # estimated, intrpol.
    dihedral_coeff 350 fourier 1 6.6 2 180.0    # estimated, intrpol.
    dihedral_coeff 351 fourier 1 6.6 2 180.0    # estimated, intrpol.
    dihedral_coeff 352 fourier 1 6.6 2 180.0    # estimated, intrpol.
    dihedral_coeff 353 fourier 1 6.6 2 180.0    # estimated, intrpol.
    dihedral_coeff 354 fourier 1 0.6 1 0.0    # single bond
    dihedral_coeff 355 fourier 1 0.6 1 0.0    # single bond
    dihedral_coeff 356 fourier 1 2.1 2 180.0    #
    dihedral_coeff 357 fourier 1 6.65 2 180.0    # estimated !!!
    dihedral_coeff 358 fourier 1 6.65 2 180.0    # estimated !!!
    dihedral_coeff 359 fourier 1 6.65 2 180.0    # estimated !!!
    dihedral_coeff 360 fourier 1 6.66666666667 2 180.0    # estimated !!!
    dihedral_coeff 361 fourier 1 1.0 3 180.0    #
    dihedral_coeff 362 fourier 1 1.0 3 180.0    #
    dihedral_coeff 363 fourier 1 1.0 3 180.0    #
    dihedral_coeff 364 fourier 1 1.0 3 180.0    #
    dihedral_coeff 365 fourier 1 2.1 2 180.0    #
    dihedral_coeff 366 fourier 1 2.1 2 180.0    #
    dihedral_coeff 367 fourier 1 2.1 2 180.0    #
    dihedral_coeff 368 fourier 2 2.8 2 180.0 1.3 1 180.0    #
    dihedral_coeff 369 fourier 2 2.8 2 180.0 1.3 1 180.0    #
    dihedral_coeff 370 fourier 2 2.8 2 180.0 1.3 1 180.0    #
    dihedral_coeff 371 fourier 1 6.65 2 180.0    # estimated !!!
    dihedral_coeff 372 fourier 1 1.5 3 180.0    #
    dihedral_coeff 373 fourier 1 1.5 3 180.0    #
    dihedral_coeff 374 fourier 1 6.66666666667 2 180.0    # estimated !!!
    dihedral_coeff 375 fourier 2 0.5 3 180.0 6.8 1 180.0    #
    dihedral_coeff 376 fourier 2 0.5 3 180.0 6.8 1 180.0    #
    dihedral_coeff 377 fourier 1 2.25 2 0.0    #
    dihedral_coeff 378 fourier 1 0.25 3 0.0    #
    dihedral_coeff 379 fourier 1 1.6 2 0.0    #
    dihedral_coeff 380 fourier 1 1.9 2 0.0    #
    dihedral_coeff 381 fourier 1 4.0 2 180.0    #
    dihedral_coeff 382 fourier 1 2.2 2 0.0    #
    dihedral_coeff 383 fourier 1 1.8 2 0.0    #
    dihedral_coeff 384 fourier 1 3.2 2 180.0    #
    dihedral_coeff 385 fourier 1 3.2 2 180.0    #
    dihedral_coeff 386 fourier 1 3.2 2 180.0    #
    dihedral_coeff 387 fourier 1 2.35 2 0.0    #
    dihedral_coeff 388 fourier 1 2.1 2 180.0    #
    dihedral_coeff 389 fourier 1 2.1 2 180.0    #
    dihedral_coeff 390 fourier 1 3.0 2 180.0    #
    dihedral_coeff 391 fourier 1 3.0 2 180.0    #
    dihedral_coeff 392 fourier 1 3.1 2 0.0    #
    dihedral_coeff 393 fourier 1 2.6 2 0.0    #
    dihedral_coeff 394 fourier 1 3.75 2 0.0    #
    dihedral_coeff 395 fourier 1 3.75 2 0.0    #
    dihedral_coeff 396 fourier 1 3.13333333333 2 0.0    #
    dihedral_coeff 397 fourier 1 3.13333333333 2 0.0    #
    dihedral_coeff 398 fourier 1 0.188888888889 3 0.0    #
    dihedral_coeff 399 fourier 1 0.233333333333 3 0.0    #
    dihedral_coeff 400 fourier 1 0.183333333333 3 0.0    #
    dihedral_coeff 401 fourier 1 0.0833333333333 3 180.0    #
    dihedral_coeff 402 fourier 1 0.333333333333 3 0.0    #
    dihedral_coeff 403 fourier 1 0.566666666667 3 0.0    #
    dihedral_coeff 404 fourier 1 0.166666666667 3 180.0    #
    dihedral_coeff 405 fourier 1 0.166666666667 3 180.0    #
    dihedral_coeff 406 fourier 1 0.166666666667 3 180.0    #
    dihedral_coeff 407 fourier 1 0.15 3 0.0    #
    dihedral_coeff 408 fourier 1 0.05 3 0.0    #
    dihedral_coeff 409 fourier 1 0.05 3 0.0    #
    dihedral_coeff 410 fourier 1 0.0888888888889 3 0.0    #
    dihedral_coeff 411 fourier 1 0.0888888888889 3 0.0    #
    dihedral_coeff 412 fourier 1 0.666666666667 3 0.0    #
    dihedral_coeff 413 fourier 1 0.333333333333 3 0.0    #
    dihedral_coeff 414 fourier 1 0.283333333333 3 0.0    #
    dihedral_coeff 415 fourier 1 0.283333333333 3 0.0    #
    dihedral_coeff 416 fourier 1 0.133333333333 3 0.0    #
    dihedral_coeff 417 fourier 1 0.133333333333 3 0.0    #
    dihedral_coeff 418 fourier 1 0.9 2 0.0    #
    dihedral_coeff 419 fourier 1 1.2 2 0.0    #
    dihedral_coeff 420 fourier 1 6.0 2 180.0    #
    dihedral_coeff 421 fourier 1 1.0 2 0.0    #
    dihedral_coeff 422 fourier 1 0.65 2 0.0    #
    dihedral_coeff 423 fourier 1 1.0 2 180.0    #
    dihedral_coeff 424 fourier 1 1.0 2 180.0    #
    dihedral_coeff 425 fourier 1 1.0 2 180.0    #
    dihedral_coeff 426 fourier 1 1.45 2 0.0    #
    dihedral_coeff 427 fourier 1 1.1 3 0.0    #
    dihedral_coeff 428 fourier 1 1.1 3 0.0    #
    dihedral_coeff 429 fourier 1 0.833333333333 2 180.0    #
    dihedral_coeff 430 fourier 1 0.833333333333 2 180.0    #
    dihedral_coeff 431 fourier 1 1.8 2 0.0    #
    dihedral_coeff 432 fourier 1 7.8 2 0.0    #
    dihedral_coeff 433 fourier 1 1.05 2 0.0    #
    dihedral_coeff 434 fourier 1 1.05 2 0.0    #
    dihedral_coeff 435 fourier 1 3.66666666667 2 180.0    #
    dihedral_coeff 436 fourier 1 3.66666666667 2 180.0    #
    dihedral_coeff 437 fourier 1 1.8 3 180.0    #
    dihedral_coeff 438 fourier 1 2.55 2 180.0    #
    dihedral_coeff 439 fourier 1 1.5 2 0.0    #
    dihedral_coeff 440 fourier 1 1.5 1 0.0    #
    dihedral_coeff 441 fourier 1 1.4 2 180.0    #
    dihedral_coeff 442 fourier 1 1.4 2 180.0    #
    dihedral_coeff 443 fourier 1 1.4 2 180.0    #
    dihedral_coeff 444 fourier 1 2.35 2 0.0    #
    dihedral_coeff 445 fourier 1 1.175 3 0.0    #
    dihedral_coeff 446 fourier 1 1.175 3 0.0    #
    dihedral_coeff 447 fourier 1 0.8 2 0.0    #
    dihedral_coeff 448 fourier 1 0.8 2 0.0    #
    dihedral_coeff 449 fourier 1 1.6 2 0.0    #
    dihedral_coeff 450 fourier 1 2.1 2 0.0    #
    dihedral_coeff 451 fourier 2 0.75 2 0.0 0.1 3 180.0    #
    dihedral_coeff 452 fourier 2 0.75 2 0.0 0.1 3 180.0    #
    dihedral_coeff 453 fourier 1 0.1 2 180.0    #
    dihedral_coeff 454 fourier 1 0.1 2 180.0    #
    dihedral_coeff 455 fourier 2 0.4 4 180.0 1.8 2 180.0    #
    dihedral_coeff 456 fourier 1 3.9 2 180.0    #
    dihedral_coeff 457 fourier 1 3.0 2 180.0    #
    dihedral_coeff 458 fourier 1 0.3 2 180.0    #
    dihedral_coeff 459 fourier 1 0.3 2 180.0    #
    dihedral_coeff 460 fourier 1 0.3 2 180.0    #
    dihedral_coeff 461 fourier 1 1.9 2 180.0    #
    dihedral_coeff 462 fourier 1 0.575 2 180.0    #
    dihedral_coeff 463 fourier 1 0.575 2 180.0    #
    dihedral_coeff 464 fourier 2 2.4 2 0.0 0.4 3 0.0    #
    dihedral_coeff 465 fourier 2 2.4 2 0.0 0.4 3 0.0    #
    dihedral_coeff 466 fourier 1 2.3 2 180.0    #
    dihedral_coeff 467 fourier 1 2.7 2 180.0    #
    dihedral_coeff 468 fourier 1 2.6 2 180.0    #
    dihedral_coeff 469 fourier 1 2.6 2 180.0    #
    dihedral_coeff 470 fourier 1 0.333333333333 2 0.0    #
    dihedral_coeff 471 fourier 1 0.333333333333 2 0.0    #
    dihedral_coeff 472 fourier 1 1.6 2 0.0    #
    dihedral_coeff 473 fourier 1 1.6 2 0.0    #
    dihedral_coeff 474 fourier 1 1.5 2 180.0    #
    dihedral_coeff 475 fourier 1 1.5 2 180.0    #
    dihedral_coeff 476 fourier 1 1.5 2 180.0    #
    dihedral_coeff 477 fourier 1 0.4 3 180.0    #
    dihedral_coeff 478 fourier 1 0.7 1 0.0    #
    dihedral_coeff 479 fourier 1 0.7 1 0.0    #
    dihedral_coeff 480 fourier 1 0.533333333333 3 0.0    #
    dihedral_coeff 481 fourier 1 0.533333333333 3 0.0    #
    dihedral_coeff 482 fourier 1 2.4 2 0.0    #
    dihedral_coeff 483 fourier 1 2.4 2 0.0    #
    dihedral_coeff 484 fourier 1 5.0 1 0.0    #
    dihedral_coeff 485 fourier 1 5.0 1 0.0    #
    dihedral_coeff 486 fourier 1 9.5 1 180.0    #
    dihedral_coeff 487 fourier 1 9.5 1 180.0    #
    dihedral_coeff 488 fourier 1 1.0 1 0.0    #
    dihedral_coeff 489 fourier 1 2.2 2 0.0    #
    dihedral_coeff 490 fourier 1 1.8 2 0.0    #
    dihedral_coeff 491 fourier 1 1.65 3 0.0    #
    dihedral_coeff 492 fourier 1 1.65 3 0.0    #
    dihedral_coeff 493 fourier 1 1.2 2 180.0    #
    dihedral_coeff 494 fourier 1 1.2 2 180.0    #
    dihedral_coeff 495 fourier 2 3.0 2 180.0 2.0 1 180.0    #
    dihedral_coeff 496 fourier 2 3.0 2 180.0 2.0 1 180.0    #
    dihedral_coeff 497 fourier 2 3.0 2 180.0 2.0 1 180.0    #
    dihedral_coeff 498 fourier 1 2.2 2 0.0    #
    dihedral_coeff 499 fourier 1 1.05 2 180.0    #
    dihedral_coeff 500 fourier 1 1.05 2 180.0    #
    dihedral_coeff 501 fourier 1 0.8 2 0.0    #
    dihedral_coeff 502 fourier 1 0.8 2 0.0    #
    dihedral_coeff 503 fourier 1 6.6 2 180.0    # estimated, intrpol.
    dihedral_coeff 504 fourier 1 6.6 2 180.0    # estimated, intrpol.
    dihedral_coeff 505 fourier 1 6.6 2 180.0    # estimated, intrpol.
    dihedral_coeff 506 fourier 1 6.6 2 180.0    # estimated, intrpol.
    dihedral_coeff 507 fourier 1 6.6 2 180.0    # estimated, intrpol.
    dihedral_coeff 508 fourier 1 1.2 2 180.0    # single bond
    dihedral_coeff 509 fourier 1 1.2 2 180.0    # single bond
    dihedral_coeff 510 fourier 1 7.2 2 180.0    # estimated, intrpol.
    dihedral_coeff 511 fourier 1 7.2 2 180.0    # estimated, intrpol.
    dihedral_coeff 512 fourier 1 7.2 2 180.0    # estimated, intrpol.
    dihedral_coeff 513 fourier 1 1.2 1 0.0    #
    dihedral_coeff 514 fourier 1 1.2 1 0.0    #
    dihedral_coeff 515 fourier 1 1.2 1 0.0    #
    dihedral_coeff 516 fourier 1 6.65 2 180.0    # estimated !!!
    dihedral_coeff 517 fourier 1 2.45 2 0.0    #
    dihedral_coeff 518 fourier 1 2.45 2 0.0    #
    dihedral_coeff 519 fourier 1 6.66666666667 2 180.0    # estimated !!!
    dihedral_coeff 520 fourier 1 1.9 1 0.0    #
    dihedral_coeff 521 fourier 1 1.9 1 0.0    #
    dihedral_coeff 522 fourier 1 1.4 2 180.0    #
    dihedral_coeff 523 fourier 1 1.4 2 180.0    #
    dihedral_coeff 524 fourier 1 1.4 2 180.0    #
    dihedral_coeff 525 fourier 1 1.4 2 180.0    #
    dihedral_coeff 526 fourier 1 1.4 2 180.0    #
    dihedral_coeff 527 fourier 1 1.4 2 180.0    #
    dihedral_coeff 528 fourier 1 6.65 2 180.0    # estimated !!!
    dihedral_coeff 529 fourier 1 1.5 2 0.0    #
    dihedral_coeff 530 fourier 1 1.5 2 0.0    #
    dihedral_coeff 531 fourier 1 6.66666666667 2 180.0    # estimated !!!
    dihedral_coeff 532 fourier 1 0.4 3 180.0    #
    dihedral_coeff 533 fourier 1 0.4 3 180.0    #
    dihedral_coeff 534 fourier 1 0.5 3 0.0    #
    dihedral_coeff 535 fourier 1 0.9 1 0.0    #
    dihedral_coeff 536 fourier 1 0.9 1 0.0    #
    dihedral_coeff 537 fourier 1 1.83333333333 2 180.0    #
    dihedral_coeff 538 fourier 1 1.83333333333 2 180.0    #
    dihedral_coeff 539 fourier 1 4.6 2 0.0    #
    dihedral_coeff 540 fourier 1 1.15 3 0.0    #
    dihedral_coeff 541 fourier 1 3.85 2 0.0    #
    dihedral_coeff 542 fourier 1 3.85 2 0.0    #
    dihedral_coeff 543 fourier 1 0.266666666667 3 0.0    #
    dihedral_coeff 544 fourier 1 0.266666666667 3 0.0    #
    dihedral_coeff 545 fourier 1 6.65 2 180.0    # estimated !!!
    dihedral_coeff 546 fourier 1 1.45 2 180.0    #
    dihedral_coeff 547 fourier 1 6.65 2 180.0    # estimated !!!
    dihedral_coeff 548 fourier 1 0.316666666667 2 180.0    #
    dihedral_coeff 549 fourier 1 6.65 2 180.0    # estimated !!!
    dihedral_coeff 550 fourier 1 0.85 1 0.0    #
    dihedral_coeff 551 fourier 1 6.65 2 180.0    # estimated !!!
    dihedral_coeff 552 fourier 1 0.116666666667 3 0.0    #
    dihedral_coeff 553 fourier 1 0.25 1 180.0    #
    dihedral_coeff 554 fourier 1 0.25 1 180.0    #
    dihedral_coeff 555 fourier 1 0.6 2 180.0    #
    dihedral_coeff 556 fourier 1 0.6 2 180.0    #
    dihedral_coeff 557 fourier 1 6.66666666667 2 180.0    # estimated !!!
    dihedral_coeff 558 fourier 1 0.6 2 0.0    #
    dihedral_coeff 559 fourier 1 0.3 3 0.0    #
    dihedral_coeff 560 fourier 1 0.3 3 0.0    #
    dihedral_coeff 561 fourier 1 3.8 2 180.0    #
    dihedral_coeff 562 fourier 1 3.8 2 180.0    #
    dihedral_coeff 563 fourier 1 6.66666666667 2 180.0    # estimated !!!
    dihedral_coeff 564 fourier 1 0.266666666667 3 0.0    #
    dihedral_coeff 565 fourier 1 6.66666666667 2 180.0    # estimated !!!
    dihedral_coeff 566 fourier 1 0.277777777778 3 0.0    #
    dihedral_coeff 567 fourier 1 5.6 3 0.0    #
    dihedral_coeff 568 fourier 1 5.3 3 0.0    #
    dihedral_coeff 569 fourier 1 0.7 3 0.0    #
    dihedral_coeff 570 fourier 1 0.7 3 0.0    #
    dihedral_coeff 571 fourier 1 4.66666666667 2 180.0    #
    dihedral_coeff 572 fourier 1 4.66666666667 2 180.0    #
    dihedral_coeff 573 fourier 1 0.0 3 0.0    #
    dihedral_coeff 574 fourier 1 0.3 3 0.0    #
    dihedral_coeff 575 fourier 1 0.3 3 0.0    #
    dihedral_coeff 576 fourier 1 3.06666666667 2 180.0    #
    dihedral_coeff 577 fourier 1 3.06666666667 2 180.0    #
    dihedral_coeff 578 fourier 1 6.65 2 180.0    # estimated !!!
    dihedral_coeff 579 fourier 1 0.625 3 0.0    #
    dihedral_coeff 580 fourier 1 6.66666666667 2 180.0    # estimated !!!
    dihedral_coeff 581 fourier 1 4.33333333333 2 180.0    #
    dihedral_coeff 582 fourier 1 6.66666666667 2 180.0    # estimated !!!
    dihedral_coeff 583 fourier 1 0.155555555556 2 180.0    #
    dihedral_coeff 584 fourier 1 6.65 2 180.0    # NEW
    dihedral_coeff 585 fourier 1 4.8 2 180.0    # NEW
    dihedral_coeff 586 fourier 1 4.8 2 180.0    # NEW
    dihedral_coeff 587 fourier 1 5.4 2 180.0    # NEW
    dihedral_coeff 588 fourier 2 2.25 2 180.0 1.3 1 180.0    #
    dihedral_coeff 589 fourier 2 1.1 2 180.0 0.7 3 180.0    #
    dihedral_coeff 590 fourier 2 0.65 2 180.0 1.2 1 180.0    #
    dihedral_coeff 591 fourier 2 1.0 2 180.0 1.9 1 180.0    #
    dihedral_coeff 592 fourier 2 1.7 1 180.0 2.0 2 180.0    #
    dihedral_coeff 593 fourier 2 0.85 2 180.0 0.8 1 0.0    #
    dihedral_coeff 594 fourier 3 0.5 4 180.0 0.15 3 180.0 0.53 1 0.0    # phi,psi,parm94
    dihedral_coeff 595 fourier 2 0.1 4 0.0 0.07 2 0.0    # phi,psi,parm94
    dihedral_coeff 596 fourier 2 0.0 3 0.0 2.3 1 0.0    #
    dihedral_coeff 597 fourier 2 0.0 3 0.0 2.3 1 0.0    #
    dihedral_coeff 598 fourier 2 0.0 3 0.0 2.3 1 0.0    #
    dihedral_coeff 599 fourier 2 0.0 3 0.0 2.3 1 0.0    #
    dihedral_coeff 600 fourier 2 0.0 3 0.0 2.3 1 0.0    #
    dihedral_coeff 601 fourier 2 0.0 3 0.0 2.3 1 0.0    #
    dihedral_coeff 602 fourier 2 2.5 2 180.0 2.0 1 0.0    # JCC,7,(1986),230
    dihedral_coeff 603 fourier 2 3.5 2 0.0 0.6 3 0.0    # JCC,7,(1986),230
    dihedral_coeff 604 fourier 2 1.9 2 0.0 1.9 3 0.0    #
    dihedral_coeff 605 fourier 2 3.0 2 180.0 2.3 3 0.0    #
    dihedral_coeff 606 fourier 2 1.2 1 0.0 1.5 2 0.0    #
    dihedral_coeff 607 fourier 2 0.25 3 0.0 1.2 2 0.0    # JCC,7,(1986),230
    dihedral_coeff 608 fourier 2 0.25 3 0.0 1.2 2 0.0    # JCC,7,(1986),230
    dihedral_coeff 609 fourier 2 0.8 1 0.0 0.08 3 180.0    # Junmei et al, 1999
    dihedral_coeff 610 fourier 2 0.8 1 0.0 0.08 3 180.0    # Junmei et al, 1999
    dihedral_coeff 611 fourier 1 0.15 3 0.0    # Junmei et al, 1999
    dihedral_coeff 612 fourier 1 0.16 3 0.0    # Junmei et al, 1999
    dihedral_coeff 613 fourier 2 0.38 3 180.0 1.15 1 0.0    # Junmei et al, 1999
    dihedral_coeff 614 fourier 2 0.16 3 0.0 0.25 1 0.0    # Junmei et al, 1999
    dihedral_coeff 615 fourier 2 2.3 2 180.0 1.9 1 0.0    # Junmei et al, 1999
    dihedral_coeff 616 fourier 2 2.175 2 180.0 0.3 3 0.0    # Junmei et al, 1999
    dihedral_coeff 617 fourier 2 6.65 2 180.0 1.9 1 180.0    # Junmei et al, 1999
    dihedral_coeff 618 fourier 3 0.18 3 0.0 0.25 2 180.0 0.2 1 180.0    # Junmei et al, 1999
    dihedral_coeff 619 fourier 2 0.3 3 0.0 0.48 2 180.0    # Junmei et al, 1999
    dihedral_coeff 620 fourier 2 0.383 3 0.0 0.1 2 180.0    #
    dihedral_coeff 621 fourier 2 0.383 3 0.0 0.8 1 180.0    # Junmei et al, 1999
    dihedral_coeff 622 fourier 3 0.1 3 0.0 0.85 2 180.0 1.35 1 180.0    # Junmei et al, 1999
    dihedral_coeff 623 fourier 2 0.383 3 0.0 0.65 2 0.0    # parm98.dat, TC,PC,PAK
    dihedral_coeff 624 fourier 2 2.7 2 180.0 1.4 1 180.0    # Junmei et al, 1999
    dihedral_coeff 625 fourier 2 0.0 2 0.0 2.5 1 0.0    # parm98, TC,PC,PAK
    dihedral_coeff 626 fourier 2 0.144 3 0.0 1.175 2 0.0    # parm98, TC,PC,PAK
    dihedral_coeff 627 fourier 2 0.144 3 0.0 1.175 2 0.0    # parm98, TC,PC,PAK
    dihedral_coeff 628 fourier 2 0.144 3 0.0 1.175 2 0.0    # parm98, TC,PC,PAK
    dihedral_coeff 629 fourier 2 0.0 3 0.0 1.2 1 180.0    # Junmei et al, 1999
    dihedral_coeff 630 fourier 2 0.0 3 0.0 0.45 1 180.0    # Junmei et al, 1999
    dihedral_coeff 631 fourier 2 0.0 3 0.0 0.0 1 180.0    # Junmei et al, 1999
    dihedral_coeff 632 fourier 2 0.0 3 0.0 0.25 1 0.0    # Junmei et al, 1999
    dihedral_coeff 633 fourier 2 0.0 3 0.0 0.25 1 0.0    # Junmei et al, 1999
    dihedral_coeff 634 fourier 2 0.0 3 0.0 0.19 1 0.0    # Junmei et al, 1999
    dihedral_coeff 635 fourier 2 0.0 3 0.0 0.25 1 0.0    # Junmei et al, 1999
    dihedral_coeff 636 fourier 2 0.0 3 0.0 0.55 1 0.0    # Junmei et al, 1999
    dihedral_coeff 637 fourier 2 0.0 3 0.0 0.25 1 0.0    # Junmei et al, 1999
    dihedral_coeff 638 fourier 2 0.0 3 0.0 0.25 1 0.0    # Junmei et al, 1999
    dihedral_coeff 639 fourier 2 0.0 3 0.0 0.19 1 0.0    # Junmei et al, 1999
    dihedral_coeff 640 fourier 2 0.0 3 0.0 0.25 1 0.0    # Junmei et al, 1999
    dihedral_coeff 641 fourier 2 0.0 3 0.0 0.55 1 0.0    # Junmei et al, 1999
    improper_coeff 1 cvff 1.1 -1 2   # JCC,7,(1986),230
    improper_coeff 2 cvff 10.5 -1 2   # JCC,7,(1986),230
    improper_coeff 3 cvff 1.1 -1 2   # bsd.on C6H6 nmodes
    improper_coeff 4 cvff 1.1 -1 2   # JCC,7,(1986),230
    improper_coeff 5 cvff 1.1 -1 2   # JCC,7,(1986),230
    improper_coeff 6 cvff 1.1 -1 2   # JCC,7,(1986),230
    improper_coeff 7 cvff 1.1 -1 2   # JCC,7,(1986),230
    improper_coeff 8 cvff 10.5 -1 2   # JCC,7,(1986),230
    improper_coeff 9 cvff 1.1 -1 2   # dac guess, 9/94
    improper_coeff 10 cvff 1.1 -1 2   # dac guess, 9/94
    improper_coeff 11 cvff 1.1 -1 2   # Junmei et al.1999
    improper_coeff 12 cvff 1.1 -1 2   # Junmei et al.1999
    improper_coeff 13 cvff 1.1 -1 2   #
    improper_coeff 14 cvff 1.1 -1 2   #
    improper_coeff 15 cvff 1.1 -1 2   # Junmei et al.1999
    improper_coeff 16 cvff 1.1 -1 2   # Junmei et al.1999
    improper_coeff 17 cvff 1.1 -1 2   # Junmei et al.1999
    improper_coeff 18 cvff 1.1 -1 2   #
    improper_coeff 19 cvff 1.1 -1 2   #
    improper_coeff 20 cvff 1.1 -1 2   #
    improper_coeff 21 cvff 1.1 -1 2   #
    improper_coeff 22 cvff 1.1 -1 2   #
    improper_coeff 23 cvff 1.1 -1 2   #
    improper_coeff 24 cvff 1.1 -1 2   #
    improper_coeff 25 cvff 1.1 -1 2   # Junmei et al.1999
    improper_coeff 26 cvff 1.1 -1 2   # Junmei et al.1999
    improper_coeff 27 cvff 1.1 -1 2   # Junmei et al.1999
    improper_coeff 28 cvff 1.1 -1 2   # Junmei et al.1999
    improper_coeff 29 cvff 1.1 -1 2   # (not used in tyr!)
    improper_coeff 30 cvff 1.1 -1 2   #
    improper_coeff 31 cvff 1.1 -1 2   #
    improper_coeff 32 cvff 1.1 -1 2   # Junmei et al.1999
    improper_coeff 33 cvff 1.1 -1 2   # dac, 10/94
    improper_coeff 34 cvff 1.1 -1 2   # Junmei et al.1999
    improper_coeff 35 cvff 1.1 -1 2   #
    improper_coeff 36 cvff 1.1 -1 2   # dac guess, 9/94
    improper_coeff 37 cvff 1.1 -1 2   # dac guess, 9/94
    improper_coeff 38 cvff 1.1 -1 2   # dac, 10/94
thermo_style    custom step etotal temp press
thermo          10
dump            1 all xtc 10 bpy-128_md.xtc
dump_modify     1 unwrap yes

# ----------------- Run Section -----------------

# The lines above define the system you want to simulate.
# What you do next is up to you.
# Typically a user would minimize and equilibrate
# the system using commands similar to the following:
#  ----   examples   ----
#
#  -- minimize --
# minimize 1.0e-5 1.0e-7 1000 10000
# (Note: Some fixes, for example "shake", interfere with the minimize command,
#        You can use the "unfix" command to disable them before minimization.)
#  -- declare time step for normal MD --
 timestep 1.0
#  -- run at constant pressure (Nose-Hoover)--
 fix   fxnpt all npt temp 300.0 300.0 100.0 iso 1.0 1.0 1000.0 drag 1.0
#  -- ALTERNATELY, run at constant volume (Nose-Hoover) --
# fix   fxnvt all nvt temp 300.0 300.0 500.0 tchain 1
#  -- ALTERNATELY, run at constant volume using Langevin dynamics. --
#  -- (This is good for sparse CG polymers in implicit solvent.)   --
# fix fxLAN all langevin 300.0 300.0 5000 48279
# fix fxNVE all nve  #(<--needed by fix langevin)
#  -- Now, finally run the simulation --
 run   50000
PPPM initialization ...
  using 12-bit tables for long-range coulomb (src/kspace.cpp:323)
  G vector (1/distance) = 0.181418
  grid = 10 10 10
  stencil order = 5
  estimated absolute RMS force accuracy = 0.0167897
  estimated relative force accuracy = 5.05617e-05
  using double precision FFTW3
  3d grid and FFT values/proc = 3375 1000
Neighbor list info ...
  update every 1 steps, delay 10 steps, check yes
  max neighbors/atom: 2000, page size: 100000
  master list distance cutoff = 12
  ghost atom cutoff = 12
  binsize = 6, bins = 8 8 8
  1 neighbor lists, perpetual/occasional/extra = 1 0 0
  (1) pair lj/charmm/coul/long, perpetual
      attributes: half, newton on
      pair build: half/bin/newton
      stencil: half/bin/3d/newton
      bin: standard
Per MPI rank memory allocation (min/avg/max) = 14.13 | 14.13 | 14.13 Mbytes
Step TotEng Temp Press 
       0    4489.9743    298.68952    222.43719 
      10     4490.985    294.41724   -236.88494 
      20     4490.089      300.731   -922.02235 
      30    4487.9702    302.73059   -819.16626 
      40    4487.1457    303.71228   -216.64459 
      50    4487.5967    296.45794   -262.99399 
      60    4487.4074    300.76107   -400.26977 
      70    4485.9567    300.86327    -184.3354 
      80    4483.8328    303.36427   -137.68189 
      90    4482.3319    301.67335     4.711324 
     100    4482.3408    297.74971    180.61342 
     110    4482.1523    306.12803   -60.852827 
     120    4480.7137     301.3804   -670.07252 
     130     4478.999    303.44311   -91.305318 
     140    4477.6474    302.20253     18.26337 
     150    4477.6511     302.2621   -473.21556 
     160    4476.1613     297.5862   -536.30504 
     170    4473.7746     295.1968   -45.549316 
     180    4472.2221    299.10196    308.20333 
     190    4470.3986    303.33249   -117.69853 
     200    4470.4768    301.67821    133.79159 
     210    4470.2959    303.49503    230.68414 
     220    4469.2474    297.94327     145.9449 
     230    4467.2327    304.81854    319.65414 
     240     4465.848    308.36892     192.0934 
     250    4466.2784    305.08568   -418.48022 
     260    4466.5155    297.97759   -303.41136 
     270    4465.1011    295.54258    494.28144 
     280    4462.9713    302.81995    6.9765465 
     290    4460.6656    300.78546   -398.20564 
     300    4460.5871    304.01547    93.349581 
     310    4462.5243    301.07867    476.73007 
     320    4461.4607     300.0363    119.70474 
     330    4459.1336    301.70695     223.2829 
     340    4457.1691    302.41375    317.11673 
     350    4456.7546    300.79325   -373.81961 
     360    4457.5156    300.97636    334.75764 
     370    4457.6618    295.73924    204.20771 
     380    4454.8523    303.73106   -467.43227 
     390    4453.5827    297.22977   -394.85557 
     400    4452.3909    302.07267    465.58619 
     410    4453.8017    303.65987    672.61096 
     420    4454.5833    296.42653   -298.96733 
     430    4453.2001    298.33179    337.84713 
     440    4451.1033    309.81838    551.57598 
     450    4450.9237    302.93515    84.166492 
     460    4451.1266    302.34159    34.767625 
     470    4450.2578    298.01152   -273.72973 
     480     4447.543    298.37444    -544.3309 
     490    4444.7642    302.63335   -145.37387 
     500    4443.7223    297.58643    286.04448 
     510    4441.9991    300.58195   -316.69051 
     520    4440.3822    300.04383   -80.398853 
     530    4437.9796    299.68443    573.92024 
     540    4435.3655    304.48966    577.68253 
     550    4434.6589    302.94113    34.735527 
     560    4433.8929    300.01754   -308.55177 
     570    4432.7127    298.76816   -44.231023 
     580    4430.7531    295.55235   -459.93177 
     590    4428.3019    300.00052   -331.67876 
     600    4427.6892    296.14144   -405.68415 
     610     4427.771    302.37523   -296.89298 
     620    4426.5487    302.70653    63.033585 
     630    4424.5576    300.35697     583.7654 
     640    4423.0045    296.09581    656.95943 
     650    4423.0445    302.43926   -33.672821 
     660    4423.7426    296.27073    157.73484 
     670    4423.9357     297.5388    108.02307 
     680    4423.1284    294.94594   -192.74662 
     690     4422.408    296.00122   -692.98325 
     700    4422.5166    302.96413   -488.16942 
     710    4423.5027    300.22515    133.61492 
     720    4423.6817    300.36783    -30.06432 
     730    4423.6276    300.52826    541.28753 
     740    4423.8267    300.75457    402.49297 
     750    4424.8852    299.68057    215.50925 
     760    4427.3768    297.33125    600.80009 
     770    4427.7455    297.26389    129.93222 
     780    4427.2404    300.74744   -368.02403 
     790    4427.0385    301.68282   -769.88623 
     800    4427.9936    301.36331   -267.19114 
     810     4429.544     302.8342   -35.799172 
     820    4429.1832    304.79438   -373.34349 
     830    4426.5418    307.69429   -24.871507 
     840    4424.0365    309.62792    628.26741 
     850    4423.3844    298.23352    351.61655 
     860    4423.9581    304.00812    94.359639 
     870    4423.2232    296.94051    141.87831 
     880    4420.6923    304.40208   -109.79914 
     890    4418.3255    300.05077    -272.5669 
     900    4416.2912    297.16749   -85.925919 
     910    4416.1242    295.66918   -316.25975 
     920    4416.0573    293.64647   -446.61234 
     930    4415.1689    297.09979   -133.44325 
     940    4413.0316    305.28326    451.69788 
     950    4413.6972    296.82812    157.81202 
     960    4415.2615    300.97897   -249.07801 
     970    4417.0933    293.26219    295.34585 
     980    4416.6414    296.48139    384.92312 
     990    4415.7056    304.40868    -237.6318 
    1000    4416.2348    300.97373   -68.810151 
    1010    4418.2945    304.89726    57.059605 
    1020    4421.6475    289.79244    -368.2727 
    1030    4422.6302    293.99553    -152.4829 
    1040    4422.1924    304.04277    65.202867 
    1050    4422.8492     302.1353   -123.51377 
    1060    4425.0127    300.84835    19.306685 
    1070    4426.8378    299.29826    458.44801 
    1080    4427.7053    294.60449    272.86803 
    1090    4426.1168    300.38287   -347.61588 
    1100    4425.0913    300.70061    119.94865 
    1110    4425.6322    301.28914    306.01121 
    1120    4426.4749    301.14077   -155.34975 
    1130     4427.031    299.04771   -199.76636 
    1140    4427.0207     301.9521    108.11179 
    1150    4427.5094    301.39211   -85.252854 
    1160     4428.739    298.61617    -27.90906 
    1170    4429.2846    300.10497    287.82114 
    1180     4429.148    299.60094   -124.27215 
    1190     4428.562    297.35073   -263.48561 
    1200    4427.7975    303.88006    138.06097 
    1210    4429.0148    298.82618    65.948833 
    1220    4428.9565    294.85633   -487.32139 
    1230    4427.3078    299.08689   -317.89663 
    1240    4425.9908    302.86437   -29.347252 
    1250    4425.4493    305.38435   -232.25489 
    1260    4425.5294     299.1601   -321.97062 
    1270     4424.286    302.77969    27.807404 
    1280    4422.2387    304.35854    12.500957 
    1290    4419.9873      300.345   -97.941075 
    1300    4420.0187    298.68642    441.01473 
    1310    4420.9014    300.77718    262.89338 
    1320    4421.8279    294.32605   -215.32007 
    1330    4421.0741    300.42898   -19.922269 
    1340    4421.0228    298.02976    35.499363 
    1350    4421.7868    297.79854   -337.17604 
    1360     4423.892     304.5822   -519.10454 
    1370    4425.7545    293.68924   -175.09023 
    1380    4425.7187     297.8252   -238.18033 
    1390    4424.9316    289.32865   -163.51146 
    1400    4425.2718    301.89989    398.35539 
    1410    4427.1641    306.14081    158.93815 
    1420    4429.8985    296.65178   -170.83922 
    1430    4431.0852    297.26828    399.28167 
    1440    4430.5915    297.79149    198.43387 
    1450    4430.5592    297.11583   -448.25921 
    1460    4432.5171    298.81157   -461.41748 
    1470    4435.9668    290.57034   -156.50934 
    1480    4438.3735    296.90126   -121.93395 
    1490    4436.8992    301.98257   -325.88195 
    1500    4435.9906    300.34405    116.17151 
    1510    4438.2388    304.37735    441.09876 
    1520    4440.9506    298.82244    331.99542 
    1530    4442.0177    307.47248    693.44397 
    1540     4441.912    301.00902    272.44298 
    1550    4442.3525    302.23538   -504.71559 
    1560    4444.0525    296.45212   -338.38447 
    1570    4445.6274    298.58341   -78.168942 
    1580    4444.8769    299.01334   -675.76789 
    1590    4442.5592    299.81169    -660.5406 
    1600    4441.6415    299.39207   -65.758785 
    1610     4442.107     299.0188    464.21765 
    1620    4442.9538    301.87664     148.1876 
    1630    4442.9955    299.84922    123.97453 
    1640    4441.8514    304.83004    615.80602 
    1650    4441.0802    301.90967    259.00277 
    1660     4441.849    303.06298   -71.041836 
    1670    4442.9833    296.14043   -227.83028 
    1680    4442.0718     305.7314   -788.91402 
    1690    4440.2066    299.90994   -844.48404 
    1700    4438.0456    305.05605   -151.16219 
    1710    4437.2208    299.40618    45.836983 
    1720     4436.814    297.76971   -148.22314 
    1730    4435.7436    299.34219    234.07106 
    1740    4435.1964    300.67495    840.38807 
    1750    4434.7518    298.97079     290.5931 
    1760    4434.6365    296.91891   -502.35213 
    1770    4434.3135    299.73665   -284.52451 
    1780    4434.6333    297.82904   -359.94117 
    1790    4434.2973    300.16876   -763.69573 
    1800    4434.0918    302.49767   -98.360749 
    1810    4434.2178    301.99157    174.05064 
    1820     4433.434    300.38553   -346.87571 
    1830    4433.5587    299.20689    414.37693 
    1840    4434.1648    304.59996    727.39371 
    1850    4434.7962    302.74934   -134.37284 
    1860    4434.0411    294.96236   -444.18104 
    1870    4433.6478    297.61906    225.80413 
    1880    4434.4743    293.26123    74.520026 
    1890    4434.3459    298.88336   -800.13879 
    1900      4433.88    301.30321    -308.5294 
    1910     4434.597     300.3885    134.95179 
    1920    4435.3256    302.42352   -204.14533 
    1930    4435.7335     302.9224    277.11509 
    1940     4436.901    299.64733    615.10924 
    1950    4437.9706    301.82805   -150.26881 
    1960    4437.5566    293.62558   -257.34478 
    1970    4437.1243    300.35667    509.34416 
    1980    4436.6731    299.37083    -228.9234 
    1990     4436.279     299.2478   -1059.8126 
    2000    4436.9259    296.59298   -180.63512 
    2010    4437.2094    305.66436    317.69624 
    2020    4435.8601    299.76288   -710.19966 
    2030    4433.1138    307.78257   -332.86993 
    2040    4432.1958    306.27665    557.00804 
    2050    4432.6981    302.84212   -70.437374 
    2060    4432.1665    303.54664   -105.65835 
    2070    4430.1186    300.75075    499.70191 
    2080    4428.7817    300.01617   -162.69088 
    2090    4427.1706    297.10851   -649.83222 
    2100    4427.3863    301.45985    204.37023 
    2110    4427.0258    301.68657    32.697277 
    2120    4425.1863    300.19285    -1110.168 
    2130    4422.2343    305.84907   -228.41635 
    2140     4421.389    303.57719    666.43383 
    2150    4421.8174    297.40984    38.540689 
    2160     4420.796    302.46981   -477.78919 
    2170     4419.689    299.65524    412.23566 
    2180    4417.6224    303.24096    104.13626 
    2190    4414.6286    302.47825   -731.74776 
    2200    4412.9104    302.84405   -63.198215 
    2210    4411.5802    297.83355   -400.93214 
    2220    4409.1789    297.34208   -770.67255 
    2230    4405.8573    302.02901   -120.88964 
    2240    4404.3262    299.64653    606.64105 
    2250    4403.2719    302.58029    24.221976 
    2260    4401.8986    300.23587   -34.896885 
    2270    4401.3074    300.46255    810.66569 
    2280    4400.3591    300.67269     576.4753 
    2290    4398.2472    299.66238    -359.3652 
    2300    4397.3145    297.80561   -312.27271 
    2310    4397.8933    298.40169    84.775882 
    2320    4397.5897    297.98098   -659.87605 
    2330    4397.3862    299.61392   -177.58613 
    2340    4398.2158    300.45378     493.4703 
    2350     4399.471    303.04388    17.678634 
    2360    4400.5336     296.9128   -35.346805 
    2370    4401.6714    300.69298    755.95328 
    2380    4402.8462    300.27203    614.66478 
    2390    4402.4651    298.83209   -708.50566 
    2400    4401.7261    296.42338   -93.474285 
    2410     4401.337    301.57482    554.77147 
    2420    4401.6038    302.07396   -533.84003 
    2430    4400.1121     301.9939   -647.40188 
    2440    4398.8644    302.45868    649.98796 
    2450    4398.5252    297.74594    468.32631 
    2460    4399.1971    298.21368   -9.1586616 
    2470     4400.969    298.20722     798.5619 
    2480    4402.6045    294.64685    654.72767 
    2490     4402.345    301.84648   -392.24498 
    2500    4401.6758    304.93692    -194.9854 
    2510    4402.3673     298.7395    431.12359 
    2520    4403.3815    300.37374   -510.41937 
    2530    4405.1651    298.86698   -880.61482 
    2540    4404.8542    303.31882    520.51225 
    2550    4403.7746    302.86482    555.82481 
    2560    4403.1608    297.92707   -383.24087 
    2570    4402.9396    301.28885    454.72799 
    2580    4404.4762    301.87885    778.96624 
    2590     4405.333    297.95247   -248.64871 
    2600    4403.9867    304.39474   -390.56227 
    2610    4401.7064    297.45855   -43.820028 
    2620    4399.8132    309.12774   -536.50202 
    2630     4399.681     301.5681    -1189.671 
    2640    4398.5574    298.21203     424.6074 
    2650    4397.7744    302.04295    293.33025 
    2660    4395.6245    300.99858   -768.34143 
    2670    4393.9114    302.04875    404.82408 
    2680    4393.9629    298.25486    1105.2689 
    2690    4393.0208    300.17336   -227.67389 
    2700    4392.6592    297.01446   -720.66233 
    2710    4390.6186    305.78618    515.70537 
    2720    4389.0823    301.29282   -299.60826 
    2730    4388.6121    304.36912   -1024.6121 
    2740     4388.872    300.25973    -103.0604 
    2750    4388.1235    305.20292     222.1235 
    2760    4386.9781    293.45519    -553.7393 
    2770    4385.2776    295.44226    478.60845 
    2780    4386.0903    296.31873    1561.1908 
    2790    4387.1056    297.66978   -263.92554 
    2800    4387.9911    294.15369   -207.54971 
    2810    4387.7631    296.97505    670.49442 
    2820    4388.6689    293.84976   -426.47217 
    2830    4390.1416    296.97336    -1263.991 
    2840    4392.3752    299.91993   -263.34425 
    2850    4394.4087    294.37541    447.38116 
    2860    4395.1491    299.55933   -416.73422 
    2870    4395.9034    302.09136    637.95935 
    2880    4398.8111    301.45688    1056.8498 
    2890    4401.4601    297.58262    142.28046 
    2900    4403.4004    293.86799   -50.512926 
    2910    4404.2181    302.19516    612.08207 
    2920    4405.7793    298.34896    -269.3603 
    2930    4409.6187    295.69134   -1191.9501 
    2940    4412.5723    301.36376   -315.32143 
    2950    4414.8123    295.23448   -69.185895 
    2960    4415.0234    302.62766    -324.6667 
    2970    4414.9509    301.52716   -260.97393 
    2980    4415.6203    297.99061    535.96526 
    2990    4417.3282    300.87259    651.79991 
    3000     4417.218    306.41918   -92.675502 
    3010    4415.0718    299.91392    217.34956 
    3020    4413.0779    306.44023    -288.1973 
    3030    4412.9753    295.26083   -1108.2393 
    3040    4414.0419    301.97083   -543.04767 
    3050    4414.6576    295.32155   -340.65743 
    3060    4413.1138    299.11996    -673.9322 
    3070    4410.6149    300.11509   -516.90422 
    3080    4412.3007    298.93736    717.37061 
    3090    4415.3054    296.03229    831.67071 
    3100    4417.3465    295.50701   -198.62399 
    3110    4416.9754    296.41314    -18.04305 
    3120    4416.9314    301.66522    372.35218 
    3130    4418.4058    299.13732   -796.97442 
    3140    4420.3349    291.62547   -1131.3215 
    3150    4421.2213    301.92031   -380.71681 
    3160    4420.9721    299.26292   -837.56601 
    3170    4420.4476    306.43062   -213.55919 
    3180    4422.6764     303.8729    814.36686 
    3190    4426.0437    296.22001    550.46338 
    3200    4427.3005    296.81399   -37.340126 
    3210    4426.3244    301.74444    282.66541 
    3220    4426.2668    300.15995    585.04076 
    3230    4425.7382     304.1423   -857.70832 
    3240    4425.4615    297.52648   -1296.9269 
    3250    4425.1714    304.21682   -206.26068 
    3260    4424.9283    299.51733   -552.08161 
    3270     4422.725    300.15227   -575.10058 
    3280    4421.1874    303.66992    422.77809 
    3290    4421.3259     299.6106    465.87678 
    3300    4421.5862     301.5434     169.3103 
    3310    4420.9346     307.3373    781.98506 
    3320    4419.7606     303.4727    221.03249 
    3330    4417.2796    307.35819   -601.87901 
    3340    4416.0569    301.54694   -815.26234 
    3350    4414.3852    297.22223   -310.97517 
    3360    4412.1162    300.92952   -567.94924 
    3370    4408.8486    302.34639   -1169.1105 
    3380    4405.5521    299.13587    283.84531 
    3390     4405.111    299.85873    653.22776 
    3400     4404.331    295.08779   -15.206836 
    3410    4402.5478    298.87297    585.12547 
    3420     4400.549    304.33606    614.02414 
    3430    4398.4902    306.45366    -219.3348 
    3440    4396.5958    304.49039   -316.71902 
    3450    4395.6967    301.83336   -132.82262 
    3460    4393.8724    301.67948   -952.27413 
    3470    4390.4533    301.55043   -1032.1272 
    3480    4388.1746    297.56975    260.72796 
    3490    4386.9013    300.11531     469.4041 
    3500     4384.763    299.84058   -195.58776 
    3510    4383.3733    298.66076    507.51141 
    3520     4382.892    303.84423    1192.0642 
    3530    4382.4585    292.71221   -58.113215 
    3540    4381.9373    302.06171   -315.20433 
    3550    4381.4401    298.75935   -159.74352 
    3560    4380.8976    298.98577   -806.63985 
    3570    4381.3656    295.90431   -574.51584 
    3580    4382.4499    301.52318    253.80637 
    3590    4383.5309    300.57868    198.02349 
    3600    4383.5075    297.62282    -396.1206 
    3610    4382.9274    301.04562    724.78323 
    3620    4383.8892    302.06745    1282.9847 
    3630    4384.2851    300.88919   -265.33359 
    3640    4385.3361     301.5731   -538.90733 
    3650    4385.0325    293.04197    -32.79429 
    3660    4384.0935    298.05292    -423.6457 
    3670    4383.1106    307.39737   -783.61115 
    3680    4383.1465    302.25101   -388.97815 
    3690    4383.7145    298.83609    208.29603 
    3700    4384.0305    298.08984    384.44754 
    3710    4383.5359    303.43876      690.274 
    3720     4382.847    297.85353    477.65335 
    3730    4382.0977    301.91525   -161.68615 
    3740    4381.0615    305.55134   -536.03876 
    3750    4380.5681     299.3787     136.9127 
    3760    4378.7851    304.51449   -205.99006 
    3770    4376.6868     300.1259    -1117.924 
    3780     4375.534    298.92063    -225.8673 
    3790    4375.5909    301.26413    393.24814 
    3800     4375.202    300.21867    379.29537 
    3810    4372.6697    301.88151   -139.84198 
    3820    4370.3084     300.2576     341.0397 
    3830    4370.1449    302.38412     535.9278 
    3840    4369.4384    301.49008    19.205402 
    3850    4368.8025    297.17452  -0.50510681 
    3860    4366.9189    303.70366   -275.46609 
    3870    4365.0691    302.17868   -666.26237 
    3880      4364.32     303.0883    -46.74917 
    3890     4365.386    298.34302    689.44828 
    3900    4365.1803    297.67391   -270.88735 
    3910    4364.3262    300.38037   -350.00139 
    3920    4363.3094    300.98618    667.64348 
    3930    4363.1088    302.39404    412.93932 
    3940    4362.2927    299.96686   -644.03093 
    3950    4362.2318    298.51722   -675.92785 
    3960    4361.8765    305.06821    22.606168 
    3970    4361.6855    295.28916   -370.70623 
    3980    4359.7541    298.02907   -344.38168 
    3990    4358.9149    298.88823    42.660238 
    4000    4358.9975    299.57846   -232.83289 
    4010    4359.3944    300.32395   -103.31677 
    4020    4359.5474    297.69785    519.30778 
    4030     4359.862    299.89415    106.54139 
    4040    4359.8088     302.0232    -488.6927 
    4050    4359.3686    299.15913   -14.014056 
    4060    4358.4926    301.13313    220.91304 
    4070    4358.1049    300.92612   -299.46661 
    4080    4358.4381    300.38109   -844.49202 
    4090    4358.4551    297.25176   -269.49159 
    4100    4358.4587    296.39219   -1.2247383 
    4110    4357.6567    293.38725   -161.45401 
    4120    4356.5725    304.05288    197.32345 
    4130    4357.8347    299.40388    259.56588 
    4140    4359.1283    297.56433   -31.526627 
    4150    4359.7194    299.63672    401.08571 
    4160    4360.2077     298.8055    226.30469 
    4170    4360.2907    301.14965   -598.86576 
    4180    4360.6729    299.39825   -455.41925 
    4190    4361.9978    299.88701    47.007133 
    4200    4363.1194    303.62717    50.176913 
    4210    4362.8699    300.42771   -528.45971 
    4220    4362.8325    299.62981    8.9796296 
    4230     4362.675    300.22915    432.07195 
    4240    4363.1715    298.43926    27.247665 
    4250    4363.1899    300.35597    140.34573 
    4260    4363.3217    295.71751   -67.702288 
    4270     4363.024    292.53129   -431.85492 
    4280    4362.7747    297.80645    1.8910606 
    4290    4364.4778    297.28575    227.50859 
    4300    4366.4767    298.15475   -262.80607 
    4310     4368.235    296.70246   -310.30747 
    4320    4368.6752    306.32898    319.91668 
    4330    4369.9645    298.09381    295.83545 
    4340    4371.0767    300.60145    12.808189 
    4350    4372.5521      302.144   -206.07672 
    4360    4374.0543    300.44055   -115.79709 
    4370    4374.6002    301.59807   -162.04729 
    4380    4375.1445    298.66027   -78.881673 
    4390    4375.2626    299.95778   -254.02556 
    4400    4376.1849    296.54028   -383.38704 
    4410    4377.4004    299.60437   -120.69223 
    4420    4380.1034    293.82326    254.24833 
    4430    4381.7562    294.68827    480.55436 
    4440    4381.1487    301.70947   -47.304425 
    4450    4381.7639    303.93435     153.6493 
    4460     4384.966    294.47457    334.66841 
    4470    4387.6304    296.70194    210.37516 
    4480    4388.3192     297.4267   -459.55217 
    4490    4387.7308    299.43362   -533.18218 
    4500    4388.2465    298.43276    252.74362 
    4510    4389.9857    301.44231    -50.12405 
    4520    4391.4983    294.03426   -11.720541 
    4530    4392.6691    296.68441   -151.45861 
    4540    4392.5308    301.06187   -2.0799877 
    4550    4392.8539    299.44494    256.95888 
    4560    4394.5791    305.93244    222.62861 
    4570     4396.069    300.30504   -218.95151 
    4580    4396.7821    297.50119   -432.60518 
    4590    4397.1434    296.23661     519.9207 
    4600    4397.9956    301.85526    228.79611 
    4610     4398.568    306.07179   -506.47615 
    4620     4398.263    299.12941   -404.58529 
    4630    4397.9712    301.64025    95.653354 
    4640    4397.0834    302.08591   -73.395745 
    4650    4396.5975    298.95896    -252.3115 
    4660    4396.3474    304.49896    53.269662 
    4670     4397.055    296.63045   -206.59848 
    4680    4396.4021    302.47036   -40.147222 
    4690    4397.1592    299.43815    636.70875 
    4700    4396.7958    299.54466   -167.50328 
    4710    4396.6136    299.67678   -577.57624 
    4720    4396.3574    301.17812    121.18634 
    4730    4395.4999    301.48279    225.57223 
    4740    4393.4536     303.5814   -451.38477 
    4750    4391.6068    302.02616   -637.38379 
    4760    4390.1893    301.06263   -8.2775753 
    4770    4389.6521    297.51034    19.606588 
    4780    4388.1762    303.00876    110.18188 
    4790     4387.202    296.11492   0.60884286 
    4800    4386.2435    298.15483   -19.018487 
    4810    4386.8409    302.48465    17.880172 
    4820     4387.648    301.62709    309.04828 
    4830    4387.7964    297.14492    103.98413 
    4840    4386.5155    300.89068   -304.60243 
    4850    4386.2937    301.59942   -293.43997 
    4860    4386.1414    298.06035     93.16225 
    4870    4385.7659    303.35783    296.69784 
    4880    4384.7309    300.52188   -520.15764 
    4890    4382.2909    298.71251   -361.44779 
    4900    4380.9938    301.28027    282.99797 
    4910    4381.1007    300.65186    398.75131 
    4920    4381.7133    293.54345   -93.176053 
    4930    4380.4872    305.05392   -84.917058 
    4940    4378.7103    302.29408    5.2104918 
    4950     4377.872    307.53352   -121.99179 
    4960    4378.7296    298.58159    154.49717 
    4970    4379.1941    297.06436   -186.58774 
    4980    4377.7334    301.49436    -665.7378 
    4990    4374.7397    301.29786   -51.851929 
    5000    4372.9852    307.68462    430.85565 
    5010    4373.4371    298.15939    -435.9377 
    5020    4374.3768    294.90736   -639.31228 
    5030    4372.8004    302.29448   -4.9156217 
    5040    4369.9231    299.42358    170.47184 
    5050    4366.9834    301.10282   -244.14399 
    5060    4366.3173    302.94191   -281.74823 
    5070    4366.3455    300.34749   -228.58988 
    5080    4365.6712    300.44427   -205.28537 
    5090     4364.483    294.12694    43.445816 
    5100    4362.9359    300.00245    25.331022 
    5110    4363.9692    298.26979   -174.54768 
    5120    4365.8027    293.95477    159.54473 
    5130    4367.0685    295.20597    615.45234 
    5140    4366.6192    297.67229    179.04216 
    5150    4366.2731    307.71049   -276.54016 
    5160    4368.7184    294.13327    209.15187 
    5170    4372.6526    299.55736    263.86396 
    5180    4375.1781    298.26522   -281.98625 
    5190    4374.6223    297.53414   -273.45527 
    5200    4372.9444    308.89964    156.36424 
    5210    4373.3229    302.78467    197.03682 
    5220    4377.1884    297.49037    237.08198 
    5230    4381.3439    292.71819     520.1828 
    5240     4383.337    298.04262     59.50268 
    5250    4382.7933    294.03155   -140.01089 
    5260     4382.735    293.84875    290.00856 
    5270    4383.9239    298.49151    251.58375 
    5280    4386.5194    291.91702   -1018.5156 
    5290    4387.3363    299.44238   -728.51604 
    5300    4387.3217    304.62977      171.774 
    5310    4385.9478    303.65576   -196.31758 
    5320    4385.2681    307.33734    136.51291 
    5330    4386.5561    300.31601     485.0416 
    5340    4388.9305    304.32129    439.40404 
    5350    4389.9947    300.36179    318.06911 
    5360    4388.5473    301.68247    371.14424 
    5370    4386.9847    309.70988   -29.589293 
    5380    4387.0394    297.04349   -1186.6069 
    5390    4388.5796    303.62392   -347.27009 
    5400    4390.8534    295.01408     90.56212 
    5410    4390.4146    296.53243   -457.65792 
    5420    4388.5824    301.02133   -307.09831 
    5430    4386.4738     295.0773     639.7927 
    5440    4386.7482      302.001    565.36299 
    5450    4388.3806    292.74682    235.63585 
    5460    4387.7942    296.19491    67.531675 
    5470    4385.3078    297.36767     -310.719 
    5480     4382.267    301.98799   -450.42667 
    5490     4381.372    310.83913   -104.35136 
    5500    4382.6071    300.79737    183.42255 
    5510    4383.0631    298.16607   -265.61046 
    5520    4381.0743    301.28878    166.60904 
    5530    4378.7697    300.91458    815.10792 
    5540    4378.6889    302.46367    417.11631 
    5550    4380.9381    294.85441   -443.59082 
    5560    4382.0257    298.74211   -4.3480739 
    5570    4380.1335    303.62578   -38.425828 
    5580    4378.5323    301.92299   -533.05626 
    5590    4378.1849    301.76473   -170.80135 
    5600    4379.6991    299.79512   -103.28249 
    5610    4381.0877     300.1053   -58.150338 
    5620    4381.0129    295.01835    116.47742 
    5630    4378.8596    300.22966    428.64076 
    5640    4379.1328    300.55298    21.513802 
    5650    4380.8702    299.78934   -508.91082 
    5660    4382.8887    299.95622    219.76843 
    5670    4382.2688    297.47816    116.09512 
    5680    4380.3294    296.85401   -864.00178 
    5690    4380.1644    299.38166   -598.35848 
    5700    4381.0175    299.64432   -71.199321 
    5710    4381.7993    297.17487   -450.37602 
    5720    4379.2772     298.5211   -287.31814 
    5730    4377.4101    304.93038    79.083033 
    5740    4376.9056    307.41733   -23.712941 
    5750     4378.147    298.72766    87.460956 
    5760    4378.3266    301.51357    11.792751 
    5770    4376.3228    301.07529   -150.66466 
    5780     4373.704    302.16892   -822.06673 
    5790    4372.5815    301.46703   -415.84419 
    5800    4372.8317     296.4077   -139.60509 
    5810    4372.4482    296.41959   -842.29727 
    5820    4370.1077    303.02752   -238.88296 
    5830    4369.2591    300.03687    575.76929 
    5840    4370.3916      301.567     470.1325 
    5850    4371.8819    293.69165    397.90161 
    5860    4373.2627    300.07217    251.92465 
    5870    4372.5242    298.75706   -72.930949 
    5880    4370.7455    302.06602   -686.13816 
    5890     4369.925    303.25558   -486.28197 
    5900     4370.171     301.9958   -469.65516 
    5910     4370.369    302.42162   -820.20324 
    5920    4369.5621    298.32972   -108.07038 
    5930    4368.3407    299.56095    733.51161 
    5940    4367.2816    305.17421      546.245 
    5950    4368.7858     298.9333    50.888163 
    5960    4370.3016    299.01391    629.40452 
    5970    4370.2082    302.45056    210.70874 
    5980    4368.3813    297.32066   -571.48403 
    5990    4367.1549    305.05933   -490.85628 
    6000    4367.6511    297.20944   -293.38308 
    6010    4368.2629    293.41045   -592.33462 
    6020    4366.1595    302.91199   -563.33026 
    6030    4364.3013    302.14056    557.31598 
    6040    4364.3929     302.0708    264.78296 
    6050    4364.9516    306.98413   -223.15069 
    6060    4365.6247    291.63826    515.97924 
    6070    4363.2791    307.00237    583.34484 
    6080    4361.8273    306.39434    -198.3445 
    6090      4362.12    298.98608   -535.57193 
    6100    4362.6522    300.19145    262.87062 
    6110    4362.6004    296.23605   -324.68137 
    6120    4360.4341    298.07269   -816.29492 
    6130    4358.3576    303.86172    277.39748 
    6140    4358.3133    296.52693    223.31561 
    6150    4358.1405    301.62806   -204.18888 
    6160    4357.7447    299.92892    450.52633 
    6170    4356.6961    302.31355    797.40799 
    6180    4354.3455     304.2617   -331.21537 
    6190    4352.6896    298.51955   -349.15123 
    6200    4353.7582    302.51284    295.84277 
    6210    4354.2485    299.21904   -450.46395 
    6220    4352.0394    299.59685   -1095.7151 
    6230    4349.2722    299.01718    15.692575 
    6240    4347.8117     303.9301    451.21811 
    6250    4349.0254    294.35261   -481.12395 
    6260     4349.477    296.17725    126.78697 
    6270    4348.2234     292.2167    629.66515 
    6280    4346.3541    301.48464    129.03301 
    6290    4346.0456    304.24485   -99.743171 
    6300    4348.2506    295.93066    43.818411 
    6310    4349.6305    301.20564   -1.9841878 
    6320    4349.3404     298.3845   -808.74788 
    6330    4347.9799    302.06078   -158.57994 
    6340    4348.0693    307.19794    614.82381 
    6350     4348.746     296.4624   -380.63935 
    6360    4349.6114    303.18076   -51.410419 
    6370    4350.5604    293.67798    755.96955 
    6380    4351.3436    295.80031    269.30976 
    6390    4351.7258    298.86843   -438.24749 
    6400    4352.3204     289.7478   -75.974228 
    6410    4352.4391    307.53962    82.474608 
    6420    4353.8516    292.97824   -603.16893 
    6430    4354.0035    291.50418   -217.43918 
    6440    4354.7654    301.48052    548.30099 
    6450    4355.9637    298.81622   -375.19582 
    6460    4355.9975    306.46474   -559.11527 
    6470    4357.0079    299.43573    885.42156 
    6480    4358.0262    295.83759   -22.987467 
    6490    4357.6745    301.56395   -796.36853 
    6500    4357.4108    297.14872    4.9116534 
    6510    4357.1005     300.7995    82.835631 
    6520    4356.1872    302.01277   -800.26044 
    6530    4356.4474    304.30459   -603.35597 
    6540    4357.1912    296.74132    403.18294 
    6550    4357.3061    298.87982   -172.27392 
    6560    4356.4088    298.83725   -450.56117 
    6570    4355.7035    303.43014    548.41053 
    6580    4356.9057    303.01902    67.502174 
    6590     4358.094    295.99867   -832.83919 
    6600    4358.5311    300.70528    13.458257 
    6610     4358.162    301.73023     61.60279 
    6620    4357.4142    300.63988   -941.22396 
    6630    4356.3471    308.02313   -380.91606 
    6640    4356.4243    293.88753     47.25981 
    6650    4357.0592    295.20944   -183.52101 
    6660    4355.8926    301.80815   -470.23595 
    6670    4354.4844    299.43674    88.136926 
    6680    4354.0554    301.88819    454.68163 
    6690    4353.7969    297.73083   -262.03655 
    6700    4353.7781    298.11101    281.62697 
    6710    4353.0814    294.81753    439.46101 
    6720    4352.6598    303.32184   -379.24799 
    6730    4352.2811     310.3107   -206.71878 
    6740    4352.7519    298.73355    79.475529 
    6750     4352.314     303.4099   -315.61076 
    6760    4351.6692    300.53974   -557.97591 
    6770    4351.3533    299.68103   -9.2493122 
    6780    4352.3771      303.379    486.18802 
    6790    4353.2006    293.27681   -128.39703 
    6800    4352.7596    301.71731   -111.98093 
    6810    4353.0516    299.73996    513.30382 
    6820     4353.028    295.08609   -112.86649 
    6830    4352.4039     310.5535   -312.84375 
    6840     4353.145    300.39146    309.66729 
    6850    4352.0743    301.21807   -227.70352 
    6860     4349.859    306.88414   -116.25404 
    6870    4349.4993    297.33694    127.60297 
    6880    4350.4776    304.28104   -76.336483 
    6890    4351.4308    296.21737   -164.68637 
    6900    4350.3189    300.15313   -76.376214 
    6910    4348.2622    297.20756    107.14701 
    6920     4346.852    293.05186   -215.66066 
    6930    4348.1123    301.59269   -108.28886 
    6940    4349.2525    297.97586    197.39443 
    6950     4348.443    296.52797   -131.01157 
    6960    4347.5751    299.90006   -145.78548 
    6970    4347.2651    299.26675    107.16776 
    6980    4347.6178     299.5139   -94.852722 
    6990    4348.6073    299.66241   -245.64482 
    7000    4349.8797     299.5027    -67.73894 
    7010    4349.4885    302.84196   -171.07526 
    7020    4348.3127    304.28991   -17.263134 
    7030      4348.36    302.52908    353.56695 
    7040    4349.8921    295.80425    84.476454 
    7050    4351.3186    296.30396    211.81341 
    7060      4351.71    295.48987    14.302304 
    7070     4351.001    296.70274    57.150459 
    7080    4351.3728     293.7698   -62.609741 
    7090    4353.1535    301.24677   -471.77991 
    7100    4354.2725    301.34912   -71.708068 
    7110    4355.2774    298.36553   -29.120327 
    7120     4355.733    300.98963   -99.011859 
    7130    4356.2468    297.61655    341.27949 
    7140    4358.3019    297.50578    261.86111 
    7150    4360.3191    301.86703    325.62527 
    7160    4362.8666    292.88256   -95.263161 
    7170     4364.468    300.59546   -78.152759 
    7180    4366.0916    296.73033   -79.256439 
    7190     4367.669    297.98574   -484.86271 
    7200    4370.0003    296.34842   -371.66255 
    7210    4371.6981     293.8425   -191.14825 
    7220    4371.3994     303.3927    -290.5004 
    7230    4371.9001    298.18166   -69.106042 
    7240    4373.0113    300.10383    312.02072 
    7250    4374.6726    300.92451   -198.17046 
    7260    4375.2336       296.49   -25.027957 
    7270    4376.2301    300.42188    60.867597 
    7280    4377.3558    298.77052   -58.254618 
    7290    4379.1793    296.06353   -106.02274 
    7300    4380.7883    294.54116   -146.61398 
    7310    4380.7397    294.74307   -86.599643 
    7320     4380.635    300.71966   -421.55814 
    7330     4381.248    306.49301    19.967446 
    7340    4383.9258    300.54936    48.346228 
    7350    4385.3185    304.71528   -294.48586 
    7360    4386.0878    300.51207    106.52439 
    7370    4385.2738    302.00221    319.62863 
    7380    4384.6809     307.0129    69.163629 
    7390      4385.94    298.86469    87.746736 
    7400    4387.4738     295.2466       8.6419 
    7410    4387.0269    305.64987   -359.14645 
    7420    4385.2979    299.74252   -621.03097 
    7430    4383.0107    306.54845   -253.51889 
    7440    4381.1174    299.24819    -391.8342 
    7450    4381.3543    300.16185   -259.47568 
    7460    4381.1368    302.97393    88.713215 
    7470    4379.5498    292.88568    59.207681 
    7480    4376.8791    305.73141    349.24415 
    7490    4375.1905    302.10957   -120.79835 
    7500    4375.2081    297.06451    314.36298 
    7510    4375.2482    309.86936   -234.12232 
    7520    4374.9497    296.50078   -903.14963 
    7530    4372.8374    303.06568   -33.540253 
    7540    4371.0537    305.51687   -211.70801 
    7550    4371.3183    297.88427   -285.08295 
    7560    4371.8845    301.48516   -26.730225 
    7570    4371.7098    291.60804    245.12311 
    7580    4370.2877    304.90975    205.05412 
    7590    4368.3549    301.37731   -87.248664 
    7600    4368.0934    294.96563    568.29874 
    7610    4368.2368    303.39532     144.3502 
    7620    4368.2232    299.86532   -670.41545 
    7630    4367.4266    297.76684     30.51568 
    7640    4366.8685    300.18846    199.60739 
    7650    4367.8844    296.90536   -644.38728 
    7660    4368.5503    296.66767   -247.24497 
    7670    4368.3282      297.816   -9.8401338 
    7680    4367.9881    301.72322   -157.48672 
    7690     4367.756     299.1206    -351.2193 
    7700     4367.935    301.76499    154.11725 
    7710    4367.9422    300.98585    155.58486 
    7720     4368.085    299.35183   -452.36981 
    7730    4366.9652    297.77957    279.13655 
    7740    4366.2075    300.18858    159.68866 
    7750    4366.1106    305.52005   -533.53227 
    7760     4366.569    297.94091   -571.27019 
    7770    4365.4461    299.61031    117.54723 
    7780     4363.785    302.83866    49.839916 
    7790    4363.0737    296.85069   -504.53855 
    7800    4362.5412    305.83712    177.53984 
    7810    4363.4051    293.97619    487.04636 
    7820    4362.7225    303.62538   0.13429744 
    7830    4360.7131    307.21643      -16.291 
    7840     4359.475    299.02357    514.39603 
    7850    4359.6214    305.52261   -121.80793 
    7860    4359.7443    294.02259   -347.76839 
    7870    4358.4678    300.19248    146.14455 
    7880    4357.4436    303.53221    127.35522 
    7890    4357.2806    298.07897   -411.80415 
    7900    4355.4751    299.99437   -233.10528 
    7910     4355.194    298.85714    784.77699 
    7920    4355.4464    298.09808   -236.58099 
    7930    4355.8508    300.47558   -382.46358 
    7940    4355.8283    296.42653    385.83866 
    7950    4355.7469    299.90396    228.97015 
    7960    4355.2429    294.58312    -441.9688 
    7970    4355.3849    298.69883   -71.977144 
    7980    4355.0857    306.45496    350.27348 
    7990    4354.1396     297.7429   -502.55212 
    8000     4353.758    303.47596    204.89458 
    8010    4354.6892    295.96069    446.39403 
    8020     4354.026     295.9064   -354.19801 
    8030    4352.5685    303.17577   -240.68148 
    8040    4351.1358    307.06088    362.96833 
    8050    4351.3364    304.45647    65.570943 
    8060    4351.4802    302.84683    -802.7044 
    8070    4351.2252    299.42809    90.879058 
    8080    4350.5133    301.27248    478.23037 
    8090    4347.8709    299.38969   -362.70295 
    8100    4346.6514    304.51704    10.966837 
    8110    4346.9386     302.9603    264.50998 
    8120    4346.8319    300.24219   -84.757684 
    8130     4345.913    298.25048    -315.3308 
    8140    4343.0067     304.7828    379.53727 
    8150    4341.1099    302.30785   -122.01331 
    8160      4341.08    302.91121   -391.17708 
    8170    4341.7785    293.92591    358.47639 
    8180    4341.9811    293.12779    708.71824 
    8190    4340.9446     300.0988    -65.81704 
    8200    4340.2416    303.08554    -203.1088 
    8210    4341.8755    296.81956     742.0497 
    8220    4344.4603    297.03832    108.11639 
    8230    4346.1852    293.59471    -503.3621 
    8240    4346.4466    301.80487   -45.942207 
    8250     4345.667    297.61987   -154.97295 
    8260    4345.4501    300.16923   -312.62802 
    8270    4347.0878    298.03673    134.29739 
    8280      4348.86     295.4077     255.8589 
    8290    4348.4786    303.39779   -434.73221 
    8300    4347.8571    294.32356   -86.142951 
    8310    4348.0827    302.96171     584.0107 
    8320     4349.505    304.09785    21.586873 
    8330    4351.7889    297.83649    -693.4755 
    8340    4354.3174    297.50812    357.83352 
    8350    4355.0552     295.4346    477.58004 
    8360    4354.4035    300.53742    -764.7853 
    8370    4355.5858    302.38652   -239.69883 
    8380    4358.2338    294.71557   -63.197547 
    8390    4359.7751     296.5225   -563.99529 
    8400    4360.3785    293.07531   -281.17493 
    8410    4359.5196    303.60031    387.20191 
    8420    4360.1759    301.19149    -222.8045 
    8430    4361.7836    298.35135   -609.68625 
    8440    4365.0474    301.14749    809.20087 
    8450    4366.5588    300.61707    416.75812 
    8460    4365.5706    304.89321   -802.17458 
    8470     4364.844    305.49134   -90.907664 
    8480    4366.9471    296.95852    491.44286 
    8490    4367.6856    302.48453   -713.60772 
    8500    4367.9752    301.66236    -808.9916 
    8510    4367.1163     297.4775    324.14563 
    8520    4366.4224    299.16396   -53.829233 
    8530    4368.2912    298.57595   -431.56065 
    8540    4369.4327    295.54923    617.64287 
    8550    4369.4793    298.94499    689.91849 
    8560    4367.6544    305.03751   -991.57665 
    8570    4366.6236    301.31061   -266.63559 
    8580    4367.6115    304.70765    734.15367 
    8590    4368.9029      292.138   -706.46971 
    8600    4367.7554    295.68088   -878.13532 
    8610    4366.9642    296.33608    520.68012 
    8620    4367.1227     300.9419    656.54674 
    8630    4368.1662    305.62576   -361.66627 
    8640    4370.0568    294.36982    105.16439 
    8650    4369.5148    302.60797    616.99332 
    8660    4367.6186    303.53475   -621.66615 
    8670    4366.4712    298.73861   -267.71284 
    8680      4368.08    305.89671    366.75506 
    8690    4370.7838    294.64744   -684.52544 
    8700    4371.0726    292.67586   -769.24686 
    8710    4371.0402    300.21602    906.71463 
    8720    4371.3049    299.60342    731.92664 
    8730    4372.0143    306.23802   -656.05462 
    8740    4373.5828    300.94019    69.451423 
    8750      4374.26    297.72869    879.96693 
    8760    4372.7368    300.50846   -393.09985 
    8770     4370.841    290.41137   -873.71999 
    8780    4369.2106    297.97098   -133.94796 
    8790    4368.9011    297.83355   -495.77022 
    8800    4368.5733     298.2194   -983.48979 
    8810    4367.3789     301.8917   -131.43554 
    8820    4366.5771     304.9673    107.30784 
    8830    4365.1806     300.2174   -454.42663 
    8840    4364.6953    305.83121    477.18049 
    8850      4366.14    299.21894    1268.3887 
    8860    4366.7282     300.6428    75.795658 
    8870    4365.6236    303.15487   -635.29703 
    8880    4365.0694    293.02691     271.2446 
    8890    4365.7771    302.75587   -188.75234 
    8900    4367.0669    293.39625   -1301.5027 
    8910     4366.355    297.54614   -755.30855 
    8920    4366.4204    299.15698    338.35749 
    8930     4366.449    297.49082   -316.02757 
    8940    4367.0872    294.32353    104.66864 
    8950    4368.6029    296.21452    1297.9172 
    8960    4369.2967    298.19464    323.44507 
    8970    4369.4044    300.45433   -151.83946 
    8980    4370.5795    303.96606     773.9294 
    8990    4372.6259    302.13427     6.061674 
    9000      4374.24    300.42328   -1556.2135 
    9010    4373.7448    298.19789   -836.02253 
    9020    4373.6718    301.06157    276.26873 
    9030    4373.4887    299.86711   -690.17626 
    9040    4373.0833    300.24232   -736.98734 
    9050    4373.1518    303.83432    1069.9415 
    9060    4373.6425    304.05936    788.58392 
    9070    4372.7338    304.35525   -124.77919 
    9080    4372.4112    306.42352    875.35633 
    9090    4372.1807    301.17619    168.83402 
    9100    4370.9194    300.81462    -1274.252 
    9110     4368.564    300.89568   -463.71141 
    9120    4367.2038    305.26892   -176.00298 
    9130    4366.7196    305.10958   -976.18398 
    9140    4366.0205    300.37255   -629.03826 
    9150    4365.9072    300.68295    870.81589 
    9160    4365.3799    294.83198     731.0171 
    9170    4363.4993    297.53563   -421.21714 
    9180    4361.9682    308.22083    335.65298 
    9190    4361.6116    293.50887    324.60353 
    9200      4361.01    299.17274   -695.02579 
    9210    4359.5225    297.53969    -594.5217 
    9220    4358.4913    294.26753   -213.99194 
    9230    4357.2184    308.49512    -852.2254 
    9240    4357.8937    298.42998   -433.68381 
    9250    4358.5755    304.18617    824.26019 
    9260    4358.3127    306.11025    412.41829 
    9270    4356.9387    297.55143   -281.41893 
    9280    4356.3962    307.91848     358.2074 
    9290    4357.1977    302.31833    856.12321 
    9300    4356.8189    295.79259   -616.26858 
    9310    4353.2222    306.58291   -741.91164 
    9320    4350.7829    296.50112    42.103371 
    9330     4348.986    306.76414   -64.176743 
    9340    4348.5182     298.7792   -514.52216 
    9350    4348.8586    294.68207    256.60655 
    9360    4347.2364    301.63634    226.71548 
    9370    4343.6625    296.99709   -260.92722 
    9380    4341.2232    301.22596    842.29051 
    9390    4341.8227    298.98895    859.38707 
    9400    4342.6939    299.16344   -375.57684 
    9410    4342.6904    297.11369   -250.97956 
    9420    4340.5703    304.85557    735.98125 
    9430    4338.8559     306.0488   -131.26436 
    9440    4338.6092    304.70943   -1295.8119 
    9450     4338.565    299.93835    187.57807 
    9460    4338.0453    299.37359    713.01582 
    9470     4336.327    297.34736   -290.47671 
    9480    4335.4844    295.78298    365.29328 
    9490    4335.9873    300.26604    586.62048 
    9500    4336.0618     303.2009   -347.31547 
    9510     4335.656    296.56138    -440.0731 
    9520    4333.9604    302.45657    440.51195 
    9530    4333.1893     303.3949   -524.18131 
    9540     4332.708    304.05266   -992.17877 
    9550    4332.7957     296.1877    452.86191 
    9560      4332.16    294.65321    653.17206 
    9570    4330.6738    307.48013    -495.2649 
    9580    4329.5037    302.91341   -219.10313 
    9590    4329.2554    299.84855    1080.4015 
    9600    4329.9142    304.30933   -76.440438 
    9610    4330.5345     296.9264   -754.91257 
    9620    4328.9278    305.83036    106.13924 
    9630    4327.6149    300.91586   -317.79642 
    9640    4327.0096    293.75563   -652.95933 
    9650    4326.6107      300.757    347.39787 
    9660    4327.7926    294.40851    528.93856 
    9670    4327.5577    298.70777   -353.54896 
    9680     4326.379    298.96947   -148.09913 
    9690    4326.0612    301.36925    693.32835 
    9700    4327.7979    308.25754   -211.20413 
    9710    4328.5877    300.44092    -1002.122 
    9720    4327.7928    301.84598     -25.8601 
    9730    4326.0812    307.10135     317.3152 
    9740    4325.6386    301.59572   -679.68243 
    9750    4325.8901    303.10159   -60.397412 
    9760    4325.4848    293.78993    454.14241 
    9770    4324.9196    298.93777    1.7245434 
    9780    4324.5484    298.15411    282.48594 
    9790    4324.8524    293.92464    632.46413 
    9800    4326.3126    296.98824    26.472014 
    9810    4327.4561    292.68881   -561.42764 
    9820    4327.1697    301.52423    142.65863 
    9830    4326.7636    301.78378    319.56552 
    9840    4328.0842    294.00481    -729.2829 
    9850    4330.1916    301.16845   -178.07547 
    9860    4331.9121     297.5894    682.71047 
    9870    4332.6256    297.18643    265.62102 
    9880    4331.7663    301.68159   -44.519615 
    9890    4331.6937    303.07663    189.96634 
    9900    4333.6299    297.47605   -186.38041 
    9910    4334.3976    297.74492   -578.09883 
    9920    4332.9452    296.56625   -432.70844 
    9930    4330.8908    297.72863   -389.31322 
    9940    4329.7724    304.26691   -601.05105 
    9950    4329.6012    304.64197   -273.05699 
    9960    4330.7904    301.39081    612.26805 
    9970    4330.6929    302.64147    333.82929 
    9980    4329.4592    299.02935   -255.07055 
    9990    4327.7087    308.43272    16.057913 
   10000     4327.625    300.30094    358.39163 
   10010    4327.5478    301.12058   -398.54132 
   10020    4327.5871    303.88946   -1013.3557 
   10030    4326.4897    297.58548   -768.18158 
   10040    4324.6677    299.74002   -536.61768 
   10050    4323.3016    299.69703   -550.37418 
   10060    4323.4042    295.58518     76.17883 
   10070    4323.1985    299.54645    216.74269 
   10080    4322.2831    298.21263   -119.24044 
   10090    4322.1728      300.742    576.55027 
   10100    4322.9684    297.10333    527.03423 
   10110    4324.0843     296.0213   -522.25994 
   10120    4324.1353    297.02473   -1260.6003 
   10130    4322.6388    297.51011   -490.75239 
   10140    4321.9229    299.48246   -30.958294 
   10150     4321.664    299.71658   -625.84484 
   10160    4322.7771    301.11093   -181.19126 
   10170    4324.7701    293.48182    586.15922 
   10180    4324.9911    295.74391    636.55289 
   10190    4325.3575    306.09811    716.67346 
   10200     4326.354    304.31879    467.95519 
   10210    4327.5128    304.80601   -487.98954 
   10220    4329.5137    300.50474   -275.75122 
   10230     4330.014    295.33831   -125.86421 
   10240    4329.6675    297.26945   -775.80002 
   10250    4328.6424    300.45615   -1028.0369 
   10260    4328.4137    303.69777   -456.18622 
   10270    4331.0897    299.36054    695.59815 
   10280    4331.7441    303.87173    255.88682 
   10290    4330.5721     299.7598    299.51143 
   10300    4329.4882    299.66485    683.45964 
   10310    4330.2576    301.79374    286.88481 
   10320     4332.546    304.89435    68.222964 
   10330     4334.345    296.40629   -736.89495 
   10340    4333.3815    298.15789   -1261.1858 
   10350    4330.9741    300.14048   -1266.9171 
   10360    4329.8386    302.00882   -280.55437 
   10370    4331.2219    300.00291    194.89602 
   10380    4332.6838    302.84785   -191.57885 
   10390    4330.8874    294.94518    176.55727 
   10400    4328.1994    305.30459    1415.2995 
   10410    4326.9344    300.03488    873.91741 
   10420    4327.6365    298.65396   -285.43846 
   10430    4328.5583    297.09699   -796.97406 
   10440    4326.3455    298.96938   -1031.3491 
   10450    4322.1016    305.03979   -603.12951 
   10460    4319.6657    301.90164   -704.51845 
   10470    4318.1654    303.54396   -896.92466 
   10480    4317.1481    307.71503   -4.0008755 
   10490    4316.7725    297.68399    660.62875 
   10500    4315.0194    300.50437    1298.1243 
   10510    4312.7087    304.44823    734.64429 
   10520    4310.5636    298.22401   -354.41564 
   10530     4309.465    301.36021    69.610301 
   10540    4309.5739    295.88335   -123.23034 
   10550    4307.5479    301.75088   -1036.1075 
   10560    4304.6014    302.28143   -1402.4452 
   10570    4302.9522    297.03052   -697.50819 
   10580    4303.1129    302.28723    475.97747 
   10590    4302.6176    298.03727     344.8313 
   10600    4301.5079    298.00744    508.53217 
   10610    4300.1837    306.58432    888.64915 
   10620    4299.2577    298.96744    247.68898 
   10630    4298.7908    298.65225    161.05035 
   10640    4298.4961    299.92845    433.99282 
   10650    4298.0537    297.46796   -1010.4169 
   10660    4296.1212    296.05592   -1164.2737 
   10670    4295.6278    297.58453    418.68383 
   10680    4296.7057    297.08759    412.99964 
   10690    4298.6457    294.68647   -21.879517 
   10700    4300.0274    298.35626    392.78042 
   10710    4301.7082    301.24471      1307.63 
   10720    4303.5942    303.05213    876.86447 
   10730    4305.4675    301.97964    200.19706 
   10740     4307.225    302.64321    323.10281 
   10750     4308.908     301.8441   -805.18424 
   10760    4310.0674    293.33091   -970.62472 
   10770    4311.0327    298.02673    329.84135 
   10780    4312.8237    300.23097   -655.44912 
   10790    4314.5371    297.35747   -1230.1559 
   10800     4316.839    301.87269    852.91062 
   10810    4318.0798    292.19085    1354.8752 
   10820    4318.3354    298.70331    353.24209 
   10830    4319.2423    297.22048    50.005147 
   10840    4320.1047    294.97747    495.19174 
   10850    4321.5586    299.35581    130.46582 
   10860    4322.4258    297.43059   -884.99378 
   10870    4323.3112    308.52982   -326.37021 
   10880    4324.7713    301.40905   -279.15381 
   10890    4327.0262    301.02478    -114.5531 
   10900    4328.5928    302.40459     934.9609 
   10910       4329.4    299.54063    567.08123 
   10920    4328.6084    304.05442   -122.95729 
   10930    4327.9188    299.56183    324.74473 
   10940     4328.148    299.98415    364.19111 
   10950    4329.4503    306.34258   -356.82597 
   10960    4329.3223    295.47953   -1301.0958 
   10970    4327.7048    302.90385   -619.63355 
   10980    4327.1571    300.81049    46.157976 
   10990    4326.9497    304.72111   -304.71002 
   11000    4327.0085    301.12536    54.372156 
   11010    4325.9159    298.54365    363.34632 
   11020    4324.0767    300.39703   -124.63447 
   11030    4322.9387    300.56117   -1.4615401 
   11040    4322.6285    296.95437    258.42162 
   11050    4322.3332    291.30159   -884.39385 
   11060    4322.1593    290.70845   -1351.7116 
   11070    4321.1367    298.14366   -47.401853 
   11080    4320.2164    306.36437    303.42484 
   11090    4320.2219    300.71662   -382.69897 
   11100    4321.1114    302.83242   -373.60169 
   11110    4321.8187     302.9179    894.39659 
   11120      4321.27    302.63053    677.21788 
   11130    4320.1055    297.21937   -494.22198 
   11140    4319.9562     299.0438    67.677254 
   11150    4320.8849    297.12414    -799.7241 
   11160    4322.0382    297.23431   -668.18418 
   11170    4322.4404    292.76496   -22.365053 
   11180    4321.7954    298.29375   -86.229241 
   11190    4322.2647    304.05791   -564.84686 
   11200    4323.4819    303.02856   -7.4433952 
   11210    4325.6974    297.57834    1143.5718 
   11220    4326.4317    299.53869    403.26183 
   11230     4324.984    299.95917   -606.38784 
   11240    4322.4131    303.93374   -272.24305 
   11250    4321.6391    299.74306    545.98399 
   11260    4321.3428     298.9183    -814.1303 
   11270    4320.2667    303.56938   -846.12729 
   11280    4318.6673    301.40527   -251.34805 
   11290    4318.0742    306.02853   -129.72525 
   11300    4319.3469    296.45188    837.38317 
   11310    4320.8293    298.50341      619.504 
   11320    4321.6934    301.91051    715.79891 
   11330    4321.7624    296.10868   -40.972276 
   11340     4320.234    303.49272    444.62774 
   11350    4319.5575    301.04639    140.41681 
   11360    4320.0464    301.69197   -1414.5658 
   11370    4320.1039    303.50304   -1057.1887 
   11380    4319.9035     302.4645    -43.23911 
   11390    4318.4925    302.07731   -8.4040191 
   11400    4317.0271    301.30485   -204.97435 
   11410    4316.3224    300.20938    873.31358 
   11420    4316.8783    300.61632    741.95875 
   11430    4316.8278    295.51466    646.47959 
   11440    4315.5133    303.01369    353.22012 
   11450     4313.153    303.30335   -327.55978 
   11460    4311.4927    298.94283   -963.16903 
   11470     4310.684    301.78048    -868.4728 
   11480    4309.1272    304.20939    221.53083 
   11490    4306.9183     307.5455   -861.71784 
   11500    4305.2818    302.92462   -329.25503 
   11510    4305.0917    297.49988    1156.5218 
   11520    4304.5098    298.70647    1031.1018 
   11530    4304.1702    294.69496    383.26792 
   11540    4301.8867    303.09348     185.3392 
   11550    4300.4106    301.99331    255.56019 
   11560    4299.8839    297.20553   -523.77109 
   11570    4300.3548    300.59149   -128.60481 
   11580    4301.6515    296.23896   -949.63474 
   11590    4301.3035     289.3727   -1211.1703 
   11600    4298.5754    303.57646   -64.598614 
   11610    4297.7468    299.78051    903.16077 
   11620    4298.8528     305.9963    343.87356 
   11630    4300.1128     299.3999   -794.43947 
   11640    4300.6108    297.39573    998.16987 
   11650    4298.5316    305.37821    413.46781 
   11660    4297.0675    305.93245   -765.48332 
   11670    4296.6158    301.20471   -644.96782 
   11680    4297.2572     297.8161   -854.52911 
   11690    4297.5778    300.61037    -527.9647 
   11700    4295.1873    297.86932   -418.27461 
   11710    4293.5189    301.89629    370.33664 
   11720    4294.4482    296.36602   -185.12258 
   11730    4295.3128     298.4439    437.17557 
   11740    4295.4778    302.10575    1414.4401 
   11750    4294.2253    298.11273    289.77731 
   11760    4292.8388    298.95075   -783.78893 
   11770    4292.9183    303.69525   -469.37238 
   11780    4293.6241    301.01189    101.93114 
   11790    4293.3891    301.24463   -623.01935 
   11800    4292.7325    297.78534   -622.01644 
   11810    4292.3404    299.58333    145.62709 
   11820    4293.6236    300.28951    367.26185 
   11830    4295.6403    291.64262    904.03425 
   11840     4297.375    296.39905    919.97358 
   11850    4297.6859     298.2093    239.72995 
   11860    4298.2667    302.51994   -94.413035 
   11870    4300.3156    302.96745    210.89109 
   11880    4303.9123    294.85893    116.21909 
   11890    4306.0281    299.74588   -784.13304 
   11900    4305.9111    301.88881   -784.48591 
   11910    4304.9603    306.62601    263.23436 
   11920    4305.4138    301.20278    224.70611 
   11930    4306.5733    299.33562   -86.802605 
   11940    4307.0833    300.40142    183.10132 
   11950    4305.9014     300.0744     131.0449 
   11960    4303.2889    300.17178    217.71398 
   11970    4300.9659    303.69979    -49.13886 
   11980    4300.8973    300.64758   -121.58243 
   11990    4302.0118    302.46985   -577.97571 
   12000    4301.8482    299.11155   -632.71792 
   12010    4301.3649    296.81713    724.15863 
   12020    4300.5571    301.19734    394.50604 
   12030    4300.3034    301.42046   -655.69712 
   12040    4301.6033    296.30812    97.968907 
   12050    4302.8836    294.88388    848.63177 
   12060    4302.4574    301.59395   -248.28668 
   12070     4301.691    301.62296   -779.20198 
   12080     4302.421    296.46337    78.455779 
   12090    4304.4823    298.10623   -67.264517 
   12100    4305.8865    298.33357   -933.75331 
   12110    4305.0823    303.71721    40.231373 
   12120    4303.4871    301.38976    99.493617 
   12130    4302.8678    304.74878   -789.49705 
   12140    4303.2124     303.1849    147.44483 
   12150     4304.274    299.07569    711.52503 
   12160    4303.5633    304.24678   -238.81652 
   12170    4302.1183    299.21672   -558.05537 
   12180    4301.7676    303.27532    1032.2957 
   12190    4303.2078    298.45884    219.30046 
   12200    4303.9125    298.68258   -924.97581 
   12210      4303.02    300.73279    276.81643 
   12220    4302.1864    295.53459    398.79627 
   12230    4301.5352    301.08972   -116.87593 
   12240    4301.7727    297.05997    155.09514 
   12250    4302.3849    296.39013    807.84081 
   12260     4301.901     304.8836   -351.00677 
   12270    4301.8534    296.36524   -165.91581 
   12280    4301.6048    304.23045    1105.6495 
   12290    4301.5338    298.98697   -771.57666 
   12300    4302.2749    290.93306   -1384.5623 
   12310    4301.8075    303.89479    355.28607 
   12320    4302.6046    293.02421    489.62917 
   12330    4302.8164    303.43193   -254.69685 
   12340    4303.3184    300.66551    292.37853 
   12350    4303.0605    302.48395    1079.4215 
   12360    4303.0024    308.10009    39.633212 
   12370     4302.821    304.45874   -124.10489 
   12380    4302.3407    305.48002   -100.91666 
   12390    4300.9464    303.31941   -964.09021 
   12400    4298.7313    299.20163   -930.13284 
   12410    4296.4721    303.52548     626.7766 
   12420    4296.3238    297.25606    559.46073 
   12430    4298.0398    294.55195   -337.68607 
   12440    4299.0747    291.87568    614.62045 
   12450    4297.9363    299.62654    1157.4216 
   12460    4296.5734    303.07065    522.98473 
   12470    4295.9253    300.13003    -272.2888 
   12480    4296.9391    302.87545   -139.10441 
   12490    4297.5084    297.18169   -421.34314 
   12500    4296.6945    303.31537   -548.39621 
   12510    4296.4839    300.25733   -229.21072 
   12520    4296.7873    301.46195   -36.718146 
   12530    4297.3374    300.05782   -169.00089 
   12540    4297.5665    297.22951    555.95375 
   12550    4297.9897    297.22049    1280.0022 
   12560    4297.8963    299.50695    274.36724 
   12570    4298.1148    298.88338   -619.00044 
   12580    4298.8625    303.79302    185.78752 
   12590    4300.0246    300.79321   -446.19173 
   12600    4301.6799    296.11048   -1482.2507 
   12610    4301.7397    299.65361   -1133.8459 
   12620    4301.8119    296.52037    -432.1777 
   12630    4301.8352    299.66917   -21.630287 
   12640    4301.4958     299.8053   -29.563148 
   12650    4302.1773     300.5776    774.26213 
   12660    4302.2962    296.17652     591.0458 
   12670    4302.5942    304.50184   -259.79834 
   12680    4302.7484    298.18716    446.38313 
   12690    4302.8923    300.58824   -14.908102 
   12700    4303.2017     298.4189   -1419.6733 
   12710    4303.8751    304.08174   -838.66233 
   12720    4305.4712    298.58312    315.38287 
   12730     4305.624    298.73255    -213.8368 
   12740    4304.6556    297.36738   -947.20355 
   12750    4304.7819    298.92836    298.19962 
   12760    4307.1399    297.33943    983.95567 
   12770    4308.4784    298.47773   -59.134779 
   12780    4308.4352    297.46788    26.240545 
   12790     4307.844    300.49443     391.8099 
   12800    4307.4964    303.99379   -693.74247 
   12810    4307.3062    302.67302   -269.11298 
   12820     4308.115    296.28134    289.09823 
   12830    4308.1257    300.69564   -959.35478 
   12840    4306.7192    301.38423   -771.47349 
   12850    4306.0979    297.87847     684.9956 
   12860    4306.9452    298.16229    968.43078 
   12870    4308.4295    295.82354   -322.64852 
   12880    4308.9885    303.46769    484.56087 
   12890    4309.4392    298.23499    1457.3245 
   12900    4309.3995    304.62256    102.19317 
   12910    4311.0221    299.32299   -374.10815 
   12920    4311.4782    302.33821    43.223032 
   12930    4311.5358    299.50248   -418.27406 
   12940    4310.7655    302.57729   -511.45052 
   12950      4309.63    302.53911    219.87274 
   12960    4309.3855    306.88167    151.54773 
   12970    4309.1534    306.82995   -135.66793 
   12980    4308.5691    304.54213    435.79383 
   12990    4307.7319    299.25991    862.16309 
   13000    4306.4012    299.92331      87.8329 
   13010    4306.1832    299.32065   -1072.5957 
   13020    4305.0408    297.29904   -130.78357 
   13030    4304.7592    296.41296   -240.21321 
   13040    4304.0244    296.19904   -1190.0431 
   13050    4304.5786    297.46216   -854.08535 
   13060      4304.59    296.12705   -372.10175 
   13070     4303.356    297.69445   -83.443586 
   13080    4302.7514    301.14409    250.14121 
   13090    4302.9815    300.62377    774.13359 
   13100    4303.5311    302.65735    254.94809 
   13110    4303.2474    295.66859   -283.22195 
   13120    4302.8111     299.8167     376.0586 
   13130    4302.8554    301.03957   -56.098369 
   13140    4304.3496    297.15458   -1538.7575 
   13150    4304.6057    297.06936   -831.23894 
   13160    4306.0502    292.90506    156.64653 
   13170    4307.2981    297.31071   -344.84069 
   13180    4309.6433     294.1535   -237.96841 
   13190    4311.5369    298.37548    336.41364 
   13200    4313.0631    298.99475    642.68518 
   13210    4313.9283    303.24094    330.09857 
   13220     4314.724    303.65594    404.33102 
   13230    4315.5165    304.28441   -237.24315 
   13240    4315.4761    296.88088   -1135.2962 
   13250    4317.3018    296.29167   -107.65419 
   13260    4319.0659    296.13246   -154.52137 
   13270    4320.0331     299.0583   -944.24766 
   13280    4319.5893     302.9456   -658.50398 
   13290    4320.1282      300.966    786.44234 
   13300     4322.515    304.48657    998.15928 
   13310    4324.2386    293.70734    -240.2572 
   13320    4323.4912    300.69121     49.12776 
   13330    4321.8388     301.8529    47.253873 
   13340    4321.1846    298.91467   -72.318255 
   13350    4320.3682    303.02926   -777.97915 
   13360    4319.2948     298.8519   -784.40829 
   13370    4318.6626    299.25642   -721.21899 
   13380    4318.7838    301.18601   -120.33174 
   13390     4320.084    299.71099    937.72222 
   13400    4320.9587    301.67648    511.64397 
   13410    4321.2485    302.15049    231.68025 
   13420    4322.9964    300.05248    443.16713 
   13430    4323.7929    303.55771    980.80458 
   13440    4325.1922    294.90854    -134.7246 
   13450    4324.9218    299.70986   -1144.6754 
   13460    4324.0276    301.54997   -1012.0776 
   13470    4324.2876    303.24128   -613.42244 
   13480     4324.729    298.72219    -329.5789 
   13490    4323.2446    304.12091   -660.73828 
   13500    4321.1779    307.65795    53.893496 
   13510    4318.3297    305.91874    408.40435 
   13520    4316.3869    307.84477    786.81012 
   13530    4316.0691    295.22299    606.22429 
   13540    4315.1516    304.93917   -661.91558 
   13550    4313.2595    294.49939   -979.28647 
   13560    4309.9915    296.19354   -311.27783 
   13570    4308.2881    298.99295   -282.88072 
   13580    4307.7943    296.31674    -563.9678 
   13590    4307.0996    303.52955   -337.98595 
   13600    4305.9919    298.05131    500.95386 
   13610    4305.6242    300.97609    978.70325 
   13620    4304.6296    301.26484    253.16759 
   13630    4304.3284    303.31202   -305.26487 
   13640    4304.7154    303.43684   -410.43863 
   13650    4303.1255    303.44467   -303.14348 
   13660    4300.8736    303.14172   -66.373982 
   13670    4299.6887    301.96084   -764.99184 
   13680    4299.2648    297.36595   -809.85994 
   13690     4299.397    293.62925    384.28771 
   13700    4298.9164    292.22842    701.72561 
   13710     4297.459    301.49369     21.96138 
   13720    4297.0785    301.00508   -73.599301 
   13730    4297.0206    300.19515   -13.073722 
   13740    4298.1412    294.94107   -78.286816 
   13750    4299.4568    298.70112   -272.43398 
   13760    4299.4754    301.12522   -861.03247 
   13770     4298.303    299.96328   -725.44539 
   13780    4296.7783    308.36055   -233.06133 
   13790    4297.6541    305.52111    256.09567 
   13800    4298.7265    302.23365    204.27536 
   13810    4298.9172    299.91283   -251.48073 
   13820    4297.9833    299.21933    144.08508 
   13830    4296.2005    300.51474    434.45376 
   13840    4295.2067    301.29647    224.17113 
   13850    4294.9204    301.03625   -420.39408 
   13860    4294.2402    296.86397   -820.29551 
   13870    4293.8907     300.7741   -30.988459 
   13880     4293.299    301.98418    416.69485 
   13890    4292.1321    303.09688   -354.33444 
   13900    4291.4891    306.28989    -210.2095 
   13910    4292.9042    301.24451    740.48048 
   13920    4294.0165    298.80328    580.62832 
   13930    4293.5444    297.80114    543.99505 
   13940    4291.5782     301.8996   -282.03312 
   13950    4290.2771    299.69901   -661.72365 
   13960    4289.8969    299.63129   -236.03932 
   13970    4290.7407    298.22343    223.79495 
   13980    4290.3149    298.13246   -103.96429 
   13990      4288.01    297.80885     -979.791 
   14000     4285.859      308.382    862.51593 
   14010    4285.6201    301.91537    1334.0386 
   14020    4286.6842    298.74116    502.07081 
   14030    4286.9312    297.80418    152.96279 
   14040    4285.6682    299.69363    199.89426 
   14050    4284.8617    295.65154   -411.83581 
   14060    4284.0166    302.99508    -345.9507 
   14070    4283.6984    302.63433     -551.117 
   14080    4283.7367    301.79797   -1121.8864 
   14090    4283.5408    299.88337    2.9383381 
   14100    4283.6681     296.7708    919.22151 
   14110     4283.425    300.23723    818.74462 
   14120    4284.3345    292.85563   -21.832183 
   14130    4284.7536    299.85543      523.932 
   14140    4285.2345    294.77868    1109.0211 
   14150     4285.159    299.89889   -245.81692 
   14160    4285.9866    298.49596   -465.26712 
   14170    4287.4945    303.27187   -611.27487 
   14180    4289.3119    292.50001   -900.60269 
   14190    4290.1911    295.77335   -154.23058 
   14200    4290.8067    298.22219  -0.37792495 
   14210     4293.305    302.79247   -301.03712 
   14220    4295.9445     297.0325   -16.790371 
   14230    4296.7567    293.73935      902.431 
   14240    4296.3383    301.32373    887.84598 
   14250    4296.6503    305.47914   -79.210098 
   14260     4298.543    298.09792   -891.69509 
   14270    4300.7824    298.78632    -373.0629 
   14280    4302.5254    296.04124   -110.16381 
   14290    4302.9801    300.37854   -833.73836 
   14300    4303.6271    301.40071   -878.44408 
   14310    4305.9664    294.89312    -367.4136 
   14320    4308.3057      296.546    787.36113 
   14330    4309.2221    300.62125    429.57509 
   14340    4309.4124    301.98683    -45.46256 
   14350    4310.3935    299.50506   -306.86409 
   14360    4312.4504    296.45133   -678.71997 
   14370    4314.4303    305.53735    103.39442 
   14380    4315.5812    298.91124   -660.91343 
   14390     4315.295    299.25511   -1523.9499 
   14400    4314.6726    300.98044   -779.00087 
   14410    4316.0873     299.7262    1042.6509 
   14420    4318.7392    299.46631    891.10584 
   14430    4320.3056    299.75173    -577.4377 
   14440    4319.9703    299.37612     173.2618 
   14450    4318.2523    301.10177    820.18192 
   14460    4316.8296    307.49921    44.976193 
   14470    4318.1823    303.43008   -796.91896 
   14480    4321.3915     293.1827   -772.52764 
   14490    4322.4705    300.04254   -498.40524 
   14500    4320.7035    302.36202   -55.579641 
   14510     4318.805    303.93608    705.83669 
   14520    4318.8886    302.19673   -207.93438 
   14530    4319.7097    303.99675   -191.16987 
   14540    4320.5035    301.57854    996.12887 
   14550     4320.035    298.02922    786.78438 
   14560    4316.7021    305.98608   -625.69638 
   14570     4315.393    301.61611   -573.48089 
   14580      4316.15    298.78968     176.5591 
   14590    4317.3737    300.39196   -241.52434 
   14600    4316.9192    297.23173   -803.77279 
   14610     4314.763    302.51673    -250.8698 
   14620    4312.8376    304.73554   -97.255809 
   14630    4312.9611    299.91477   -241.41895 
   14640    4313.4774    299.69551    998.28474 
   14650    4312.0965    294.30303    301.08529 
   14660    4308.3048    304.82652   -822.47668 
   14670    4306.3767    303.56819   -100.64056 
   14680     4307.307    296.75549   -28.380564 
   14690    4308.5309     296.6524    -1007.154 
   14700     4308.193    293.17848   -1263.3957 
   14710    4306.5115    295.63997   -146.29066 
   14720    4305.6969    295.69722    479.14082 
   14730    4306.6342    299.07017   -68.463356 
   14740    4307.9427    300.44979    344.26402 
   14750    4308.7104    296.22762    236.70677 
   14760    4308.1051    299.39263   -323.48061 
   14770    4306.4761    303.90013   -55.312916 
   14780    4305.9206     302.1218   -770.43036 
   14790    4305.9285     300.9374    -1633.952 
   14800    4306.3917    301.01123   -959.21618 
   14810     4306.051     292.7208   -234.09501 
   14820    4303.7921    298.57506   -55.217314 
   14830    4302.6905    300.06569   -118.28059 
   14840    4303.5955    300.03562    210.02051 
   14850    4305.4596    298.10023    1079.4805 
   14860    4306.4898    299.74579    1023.8732 
   14870    4305.0779    300.12574   -583.35852 
   14880    4303.3047    298.82442   -638.13699 
   14890     4303.342    299.52279    -405.6276 
   14900    4305.1063    292.41816   -591.85101 
   14910     4305.597    299.86791   -452.66658 
   14920    4305.8739    300.07979   -592.68899 
   14930    4305.3318    301.61551    170.73155 
   14940     4305.627    302.20877    508.64725 
   14950    4306.4471    305.93031    744.05131 
   14960     4307.255    300.92716    394.72106 
   14970    4307.1999    303.23322   -208.40791 
   14980    4305.5149    302.76049    129.30754 
   14990    4304.4478    300.37372   -103.06632 
   15000    4305.5141    293.65174    -1257.687 
   15010    4305.4408    292.40934   -1180.9212 
   15020    4304.4309    300.98482   -639.73636 
   15030    4303.5637    300.91394    44.508716 
   15040    4303.9631    303.01318    698.59004 
   15050    4303.5645    310.35992    416.78965 
   15060    4304.2948     301.7942    271.55508 
   15070    4303.6372     304.1754    673.27544 
   15080    4302.2489    305.34301    301.38527 
   15090     4300.825    303.34908   -941.03677 
   15100    4300.6109    304.01369   -1438.7223 
   15110    4300.4153     301.4101   -998.54834 
   15120    4300.0705    293.83303   -87.864168 
   15130    4298.5683    301.99853   -451.68924 
   15140    4296.4012    297.70246   -181.04338 
   15150    4295.8378    302.36724    364.90429 
   15160    4296.3572    299.78321    983.65434 
   15170    4296.5313    296.21748    931.00205 
   15180    4294.8598    299.82913   -159.68233 
   15190    4293.6433    299.05865   -264.04002 
   15200    4292.9111    300.84805    -718.8226 
   15210    4293.3909    300.32414   -432.81962 
   15220     4294.376    298.42323   -351.82088 
   15230    4293.5187    300.89764   -1001.2399 
   15240    4291.6802    300.43004   -412.03049 
   15250    4291.7766    297.63375    975.09369 
   15260    4293.1434    296.67194    909.00547 
   15270    4293.1592    297.58112    365.61136 
   15280    4291.7439    299.47071    273.68398 
   15290    4289.7462    304.61566    535.65137 
   15300     4290.622    296.90332    236.59235 
   15310    4291.5896    299.00631   -557.34557 
   15320    4291.0275    300.86007   -983.35578 
   15330    4288.9911    300.48283   -1017.1438 
   15340    4287.6184    303.60345   -332.19848 
   15350    4287.8285    302.30736    129.72699 
   15360    4289.1993    297.84522   -92.704119 
   15370    4289.3667     296.7785   -14.627623 
   15380    4288.4309     296.6652    799.03937 
   15390    4287.2705     301.3386    464.78496 
   15400    4286.8699    301.34649   -92.733836 
   15410    4286.6889    299.30415   -528.91886 
   15420    4286.2518    299.44007   -1031.5768 
   15430     4285.486    297.18176   -609.28902 
   15440    4284.0083    300.82531    -400.0177 
   15450    4283.2635    306.56012    -288.8952 
   15460    4283.1209    295.78232   -373.60704 
   15470    4281.8644    305.28843    213.28347 
   15480    4280.9133    300.17816    955.02071 
   15490     4280.154    302.80127    232.64647 
   15500    4279.0597    302.80453   -607.39303 
   15510    4279.3662    297.62415   -478.55653 
   15520    4278.2428    299.23062    -23.78745 
   15530    4276.4143    302.98383   -171.43597 
   15540    4274.8882    298.49306   -374.91667 
   15550    4273.1619    303.31811   -217.55427 
   15560    4272.9767    302.14953   -220.78243 
   15570    4272.8073     304.3833    351.95682 
   15580    4272.9763    300.35581    41.941684 
   15590    4272.4249    300.08957   -389.86254 
   15600    4271.2556    302.83715   -417.45388 
   15610    4270.1455    302.12852    170.86341 
   15620    4270.2158    301.93924    342.24517 
   15630      4270.21    294.46632   -914.48421 
   15640     4268.821    296.14653   -431.18936 
   15650    4267.9637    299.48556    376.43943 
   15660    4267.0359    301.66534    48.853087 
   15670    4268.3241    302.44373   -451.32594 
   15680    4268.2157    298.11723   -597.29915 
   15690    4267.2851    304.30703   -77.033044 
   15700    4266.1269     300.7291   -137.02768 
   15710    4266.2485    296.66132    81.152172 
   15720    4265.7592    300.76499   -201.19515 
   15730    4265.7899    297.32931   -665.21655 
   15740    4265.1682    301.47429    503.16031 
   15750    4264.7799    304.94456    893.21822 
   15760    4263.9234     301.2272    136.79058 
   15770     4265.064    299.56652    -3.997493 
   15780    4267.2787    301.00861    373.79766 
   15790    4268.7023    294.01484    593.08895 
   15800    4268.1366    298.41316    12.049973 
   15810    4267.4996    299.11914   -391.26043 
   15820     4267.874    302.74084   -176.09707 
   15830    4268.8748    300.46663   -316.54842 
   15840    4270.3581    299.39748    532.39993 
   15850    4271.1056    295.16228     600.1855 
   15860    4270.2318    301.54973    369.64372 
   15870    4270.7774    296.49034    972.39368 
   15880    4271.8289     293.4455    993.21018 
   15890    4273.4994    297.52266    421.44559 
   15900     4274.759    295.07033   -615.43886 
   15910    4274.4702     308.0839   -605.60143 
   15920    4274.2205    304.56541    49.710997 
   15930    4275.2874    299.22241    -46.11531 
   15940    4276.2577     301.5524   -427.25852 
   15950    4277.4951    295.65783    492.38592 
   15960    4277.0659    303.76645    1012.2906 
   15970     4277.137    299.70854    729.90579 
   15980    4277.7026    294.51574    381.17544 
   15990    4278.7876    307.02588    44.760029 
   16000    4280.6828    293.08795   -630.48441 
   16010    4281.0331    296.91819   -528.42832 
   16020    4280.1903    300.22793   -319.51358 
   16030    4280.2746    301.55499   -515.68952 
   16040    4280.6261    306.02961   -790.51494 
   16050    4280.7436    295.34878    579.50384 
   16060    4280.2409    303.07096    707.32669 
   16070    4279.3639    304.19552   -89.867582 
   16080    4278.7216    297.13231    221.81585 
   16090    4277.3325    307.16963    171.96785 
   16100    4277.0835    299.18472   -636.22507 
   16110    4276.5593    298.36819   -1126.9738 
   16120    4275.2538    299.67703   -792.79473 
   16130    4274.4422    295.17268   -742.21726 
   16140    4274.2062    295.43848   -1075.5501 
   16150    4274.5537    293.63108   -62.934916 
   16160    4275.8118     301.5601    699.41539 
   16170    4276.2202    298.15285   -262.99545 
   16180     4276.039     301.1071    494.07318 
   16190    4277.3867    298.31404    730.59113 
   16200    4278.3549    301.54353    201.25543 
   16210    4280.3752    298.42129   -215.73867 
   16220    4282.1679    293.67427    -267.5525 
   16230    4282.3315    303.18328   -174.35303 
   16240    4284.2954    296.93851   -764.11728 
   16250    4285.2436     296.7485   -183.98309 
   16260    4286.5666    302.35152    245.11524 
   16270    4288.3983    295.72065   -365.80462 
   16280     4289.019    303.11082    511.52268 
   16290    4290.9002    299.82356    1216.4261 
   16300     4293.942    293.34798   -73.983519 
   16310    4295.2791    293.42271   -231.01921 
   16320    4295.3441    298.38711     166.1412 
   16330    4294.9458    306.25936    -623.5018 
   16340    4295.1688    301.35449   -873.64207 
   16350    4296.5082    303.83047   -521.98777 
   16360    4298.1842     302.2661    324.37751 
   16370    4298.4531     299.9972   -396.89398 
   16380    4296.4257    301.97895   -43.501372 
   16390    4295.4339    301.06619    787.71386 
   16400    4296.1407     305.6779   -259.69091 
   16410    4297.1474    299.87161   -283.00427 
   16420    4296.5023    296.80621   -125.87713 
   16430    4294.4648    301.47061   -367.46917 
   16440    4292.1423    303.54752   -847.10893 
   16450    4291.4754    305.55228   -524.67967 
   16460    4291.4368    302.48276    180.54506 
   16470    4290.2499    301.39497   -227.58697 
   16480    4287.3804    303.72938    40.726218 
   16490    4284.4043    301.74016    602.05833 
   16500     4283.606    302.99433    293.91651 
   16510    4284.2987    301.03223   -684.97157 
   16520    4283.8489    298.59714    157.67805 
   16530    4282.4117    301.38471    302.33374 
   16540     4280.194    301.04679   -686.81566 
   16550     4279.397    300.84165    76.099374 
   16560    4280.0816    299.45159    701.66873 
   16570    4279.2905    297.07609    168.52472 
   16580    4278.2174    302.10762   -520.20523 
   16590    4277.0055    296.91966    500.31478 
   16600    4275.9147    299.34737    37.934337 
   16610    4275.3949    300.62109   -1083.9827 
   16620    4274.0122    299.80543   -214.34333 
   16630    4272.4742    303.45745   -11.923973 
   16640    4270.3593    303.90451   -779.60087 
   16650    4268.7537    304.68964   -499.17149 
   16660    4267.1481    302.29306    606.73725 
   16670    4266.7496    302.24684    320.72303 
   16680    4264.9592    307.49169    176.78036 
   16690     4263.105    298.69855    706.27175 
   16700    4261.2027    296.82863    138.55023 
   16710    4260.6336    294.84614   -348.41597 
   16720    4260.1763    299.03565   -86.738659 
   16730    4258.8795    297.53323    348.53503 
   16740    4257.1339    299.93616    -566.2498 
   16750      4255.39    299.64096   -725.74178 
   16760    4254.0807    302.59035    601.36138 
   16770    4254.1638    300.31958    149.51398 
   16780    4254.7569    297.28304   -235.13075 
   16790    4254.9745    298.06186    538.81134 
   16800    4254.7809    300.62996    841.09847 
   16810    4255.3779    298.63123   -22.320905 
   16820    4257.6528    293.99962    45.428849 
   16830    4260.1025    295.60399    321.69616 
   16840    4261.8415    298.73441   -402.01797 
   16850    4261.6933    302.74266   -791.21271 
   16860    4261.4911    302.69366    361.53612 
   16870    4262.6635    301.44562    609.31652 
   16880    4264.7161    298.98364   -481.96837 
   16890    4266.1518    299.48204    718.44689 
   16900    4266.3972     298.7506    923.83161 
   16910    4265.9537    300.37555   -312.54801 
   16920    4266.6356     304.5447    358.81157 
   16930    4268.6245    301.07585      1057.85 
   16940    4271.1438    301.77242   -92.891556 
   16950    4273.0154    291.87851   -216.16399 
   16960    4272.4186    298.69932    652.33568 
   16970    4271.9957    300.49616    836.48578 
   16980    4273.4984    299.79271   -465.86498 
   16990    4275.2158    293.46321    18.124586 
   17000     4275.032    294.33661    654.45945 
   17010    4274.4536    296.93784   -760.67645 
   17020    4274.1737    303.01559    -107.2647 
   17030    4275.7909    298.94535     99.61371 
   17040    4276.8869    299.68046   -258.63007 
   17050    4275.7782    306.85301    157.35414 
   17060    4275.3357    304.34093    632.70994 
   17070    4276.1826    298.20816    497.28734 
   17080    4277.5472    299.16575   -367.40611 
   17090    4279.9995    295.62411    101.92766 
   17100    4279.7809    300.33693    312.69792 
   17110    4278.7571    301.90538   -1021.9712 
   17120    4278.0593    296.31651   -1376.6486 
   17130    4278.6329    301.37583    69.327587 
   17140    4279.5482    300.27361   -160.35659 
   17150    4279.7953    295.16443    -268.7141 
   17160    4278.1696    301.31267    168.78331 
   17170    4276.9633    299.88955    58.744972 
   17180    4275.0646    304.61401   -235.08861 
   17190    4275.1628    300.60576   -589.37387 
   17200    4275.9145    293.34145   -602.23071 
   17210    4275.3163    302.97801   -1261.6349 
   17220    4273.6074    303.95771   -1024.0807 
   17230    4273.0413    299.24351    215.07328 
   17240    4272.5053    298.53687    75.338854 
   17250    4271.8559    299.86294   -241.35407 
   17260    4271.4509    302.02843    424.23671 
   17270    4270.9429    301.99562    266.63939 
   17280    4270.6628    298.92632   -493.13678 
   17290    4268.7718    304.57205   -445.09155 
   17300    4267.3125    303.90845   -590.63253 
   17310    4265.9473    303.46065   -718.91981 
   17320    4265.5869    301.64965   -459.60561 
   17330    4265.0678    294.92278    143.53563 
   17340    4262.9458    299.65827    193.06519 
   17350    4260.9723    302.32364   -437.14352 
   17360    4261.2981    294.36207    808.06071 
   17370    4261.4861    305.08868    788.37659 
   17380    4261.9703    300.73068   -500.43124 
   17390    4261.5813    303.79308   -35.174895 
   17400    4260.3647    299.81832     233.2374 
   17410    4260.0262    297.80439   -80.621321 
   17420     4260.543    305.01151   -427.72755 
   17430    4261.0031    301.85173     15.80569 
   17440    4260.5932    304.35701    99.638499 
   17450    4258.8986    301.03696    184.17289 
   17460    4258.0841    302.77267    700.83447 
   17470    4258.9299    303.52674    398.08351 
   17480    4259.6338    298.17483   -137.05892 
   17490    4260.0998    296.10866    454.44171 
   17500    4259.8779    296.19686    713.87958 
   17510    4259.9665    294.22374   -88.853667 
   17520    4260.8734    300.29102   -130.67881 
   17530    4262.1815    297.89951   -153.47883 
   17540    4262.1897    300.39095    364.99318 
   17550    4261.0596    307.37195    216.07672 
   17560    4261.1653    304.49553   -421.70281 
   17570    4262.7172    300.57911    -23.51824 
   17580     4262.769    300.93916    98.042051 
   17590    4262.8672     300.6532   -66.738294 
   17600    4261.3987    302.13082   -350.74353 
   17610    4260.7132    299.20874   -748.35293 
   17620    4261.0966    297.39466   -303.77909 
   17630    4261.5651    296.99056   -202.86869 
   17640    4261.2047    297.33003    246.06876 
   17650    4259.6618    299.55864    293.62101 
   17660    4258.4872    303.24388   -212.72972 
   17670    4258.2812    302.19093    290.22569 
   17680    4259.0064    303.78519    156.43218 
   17690    4260.0531    298.36532   -627.46253 
   17700    4257.6188    299.01479   -913.30872 
   17710    4255.3085    306.49034   -465.84291 
   17720    4254.8163    301.16511   -443.68324 
   17730    4256.0885    300.85567    109.76618 
   17740    4256.0497    297.32894    171.73331 
   17750    4254.3601    293.63625    32.661453 
   17760    4252.4019    301.69409    741.04039 
   17770    4253.0315    304.54947    487.83105 
   17780    4255.1793    293.51031   -171.08185 
   17790    4255.0084    298.77624   -1020.7254 
   17800    4252.4682    300.08612   -607.15474 
   17810    4250.4685    303.63977    46.503898 
   17820    4250.6051    303.23741   -334.99922 
   17830    4251.7593    296.34072    92.714656 
   17840    4251.6876    305.51143    82.310151 
   17850    4250.1208    297.68983    761.80033 
   17860    4249.2881    304.81654    1092.7609 
   17870    4249.6049    301.73623    56.479759 
   17880     4251.198    293.14531   -669.01369 
   17890    4251.5689    296.94885     45.66775 
   17900    4251.1877    294.89148    82.003756 
   17910    4251.1303    293.13471   -913.65463 
   17920    4251.4527    296.32847    -674.0254 
   17930    4253.0263    300.30442    14.853835 
   17940    4255.1608    300.08292    523.99752 
   17950    4255.1396    302.58558    177.93851 
   17960     4254.717    302.93127    499.96922 
   17970    4256.0069     301.9686    634.76779 
   17980     4258.387    300.84847   -174.35556 
   17990    4260.3692    297.24677     571.8903 
   18000    4260.7614    296.03177   -405.94887 
   18010    4260.5696    301.57535   -934.93821 
   18020    4261.2916    299.27617   -764.51026 
   18030    4262.4657    295.77381   -212.72081 
   18040    4264.9454    300.93418    297.35499 
   18050    4266.6996    298.22381   -947.50719 
   18060    4267.7555     303.0831    336.17582 
   18070     4268.266    298.32245    539.81977 
   18080    4268.3475    302.34327     283.5583 
   18090    4269.7473    301.23664    298.08725 
   18100    4270.8438    299.25945   -64.467873 
   18110    4272.5058    303.08117   -669.50491 
   18120    4273.6441     292.0544   -1273.5467 
   18130    4273.1338    300.51734    65.323837 
   18140    4272.4573    303.43552   -429.35467 
   18150     4272.366    301.32777   -896.55112 
   18160    4272.6058    304.27338    449.56965 
   18170    4273.9804    303.40016    987.73538 
   18180    4273.9356    294.71132   -303.94893 
   18190    4272.0489    301.40604   -671.57117 
   18200    4270.9017    293.85467   -157.32375 
   18210    4270.8832    301.35766   -546.51816 
   18220    4271.4895    300.78323   -555.37729 
   18230    4270.4928    297.83727   -603.65951 
   18240    4268.8812    302.71911   -299.36311 
   18250    4268.2782    296.75918   -115.99594 
   18260    4268.8373    302.39158     681.5379 
   18270    4269.3122    299.59058     625.6383 
   18280    4269.7479    296.00224   -123.34685 
   18290    4268.9624     300.9366     778.7216 
   18300    4267.9488     298.9557    856.79176 
   18310    4268.4029    297.70239    262.44008 
   18320    4270.0537    298.31047   -345.37505 
   18330      4271.74    296.45711   -405.76604 
   18340    4271.3319    301.17121   -170.59248 
   18350    4269.7087    305.02403   -382.31219 
   18360    4269.7633    303.56064   -497.96973 
   18370    4270.2199    297.89861     30.15804 
   18380    4270.7775    299.12071    306.76666 
   18390    4270.1914    298.87364    251.38417 
   18400    4269.8465    299.50641    103.33716 
   18410    4269.8055    303.97478    14.168417 
   18420    4269.5817    299.82522    -183.8328 
   18430    4268.3616    304.39235    -284.0882 
   18440    4268.5426     301.4447    132.20364 
   18450    4268.6519    299.29808   -562.84769 
   18460    4268.4493    299.82241    -311.6978 
   18470    4267.0761    300.07542    186.76535 
   18480    4266.4327    299.04983   -322.28679 
   18490    4265.8999    302.36497   -490.08897 
   18500    4266.3668    298.30751   -471.48241 
   18510      4266.47    300.34605   -402.05081 
   18520    4265.2953    296.89451   -470.58724 
   18530    4262.7515    306.80534   -44.816548 
   18540    4261.2835    303.44747    6.3470837 
   18550    4261.9661    301.50135   -113.62584 
   18560    4264.2623    297.32317   -67.981643 
   18570    4265.1484    292.47507    273.87169 
   18580    4263.9297    296.03316    36.428361 
   18590     4262.312    302.05378   -147.30427 
   18600    4262.7811    305.73084    168.20448 
   18610    4265.0981    300.09071   -160.06547 
   18620    4266.6814    299.19212   -333.17958 
   18630    4266.5987    297.39088   -177.95404 
   18640    4264.4246    299.34102   -350.46143 
   18650    4263.8627    302.84779   -133.62886 
   18660    4266.0735    301.31872    174.64567 
   18670    4267.8274    298.08549    50.090682 
   18680    4268.1279    294.00185   -247.35261 
   18690    4266.3828    300.30537    219.75423 
   18700    4265.9651    299.88945    347.56887 
   18710    4266.8919    302.75867    51.308547 
   18720    4269.4478    301.76005   -170.46408 
   18730    4269.0255    303.78917   -279.12403 
   18740    4267.1536    299.01538   -77.356999 
   18750    4264.7642    308.35855   -151.70459 
   18760    4266.1554    295.87337   -18.352361 
   18770    4268.0784    297.49259  -0.45249032 
   18780    4269.2958    298.70502    433.22054 
   18790    4268.6385    292.74132    943.83771 
   18800    4267.5983    301.69643    538.85455 
   18810    4267.9962    301.88445    148.55704 
   18820    4270.4348    298.02276    -219.3998 
   18830    4271.8463    294.23554   -149.50603 
   18840    4270.8272    301.40912   -164.84825 
   18850    4268.7618    301.88689   -368.93235 
   18860    4268.2286    302.43012   -6.0064028 
   18870    4269.9787    295.40391    289.91398 
   18880    4270.8206    297.70924    216.63916 
   18890    4270.4227    298.67765    348.42435 
   18900    4268.8192    301.42489    330.67343 
   18910    4268.1205    305.55141   -314.85801 
   18920    4269.2879    303.73808    300.71365 
   18930    4271.5195    299.45601   -77.784269 
   18940    4271.0661    298.04497    185.24646 
   18950     4270.198    297.23964   -153.19838 
   18960    4270.4168    299.58395   -215.31078 
   18970    4271.7268    302.40938    444.24247 
   18980    4273.3672    298.01097   -112.63558 
   18990    4273.4797    300.12576    178.15523 
   19000    4273.2161    299.92196   -34.539158 
   19010    4273.5678    299.66943     427.4101 
   19020    4274.1996    306.72553    581.14997 
   19030    4275.6702    295.79829   -84.688651 
   19040    4275.7905    300.56038   -515.32568 
   19050    4275.1791    300.81121   -320.75747 
   19060    4275.6069    300.64895   -322.59801 
   19070    4276.0532    296.30027   -828.38971 
   19080    4276.3475    296.22038   -223.54488 
   19090    4275.8307    302.32477   -442.41378 
   19100    4273.5885     305.9031    93.904516 
   19110     4272.479    305.61631    375.36605 
   19120      4272.63     302.7024   -345.57667 
   19130    4272.7667    299.96579   -190.24278 
   19140    4272.1072    298.04313    -653.4966 
   19150    4269.8426    302.27723   -185.96984 
   19160    4268.6125    300.07542   -91.735353 
   19170    4268.1953    305.30995    -661.1608 
   19180     4269.633    298.74278    242.18061 
   19190     4271.412    291.66215    433.41199 
   19200    4271.2095    294.94503    427.20868 
   19210    4270.1449    300.00582    154.86004 
   19220    4270.1846    298.96719   -187.84271 
   19230    4271.6018       307.31   -331.51881 
   19240     4273.896    293.75448   -541.39572 
   19250    4274.7305    295.50186   -476.53438 
   19260    4273.8117    298.93398   -496.67898 
   19270    4274.2178    300.40923   -360.29596 
   19280    4275.5306    302.28751   -47.375437 
   19290    4278.2314    298.15985    230.74783 
   19300    4279.4642    298.36544    -511.8248 
   19310     4279.269    300.43411   -537.24589 
   19320    4279.2625    298.69145    26.766101 
   19330    4279.9118    298.29416   -824.13861 
   19340     4281.496    300.02666   -456.43562 
   19350    4283.3583    292.79324   -720.53265 
   19360    4283.4891    302.32716   -801.40066 
   19370     4283.543     299.1048   -140.38565 
   19380    4284.6447    301.41192   -109.10375 
   19390    4286.6774    299.99764    235.99592 
   19400    4289.4349    299.21879   -80.828713 
   19410    4289.7991    304.07695    274.50403 
   19420     4289.145    298.30168    160.14399 
   19430    4288.3941    299.93995   -400.09965 
   19440    4288.9266    304.40354   -491.90277 
   19450    4292.4789     292.8063   -417.16189 
   19460    4292.9547    296.91576   -513.07875 
   19470    4291.8191    301.56594   -399.42634 
   19480    4290.9392    297.62816   -199.54279 
   19490    4289.8821    305.26617   -537.02077 
   19500    4290.1276    299.55341     148.4072 
   19510    4290.3067    298.42337    240.13764 
   19520    4289.1212    304.53735    258.11839 
   19530    4288.0362     298.6367    143.97535 
   19540    4286.8154    304.83127   -277.86063 
   19550    4286.9002    301.03526     677.1869 
   19560    4287.7618     299.5193   -560.45073 
   19570     4287.117    303.86729   -847.30104 
   19580    4286.4118    301.34243   -157.48078 
   19590    4284.7936    295.55854   -370.96219 
   19600    4283.7055     302.9224    72.214793 
   19610    4285.3815    292.58878   0.59056943 
   19620    4285.2506    298.68755     320.4432 
   19630    4284.3579    300.39825   -100.10232 
   19640    4283.5384    297.99138   -544.59957 
   19650    4282.3958    302.96355    517.69386 
   19660    4283.0387    299.65931    363.66137 
   19670    4282.5985    297.89073   -1255.4178 
   19680     4281.044    306.90291     297.0785 
   19690    4281.2826    300.53935    609.09207 
   19700    4281.6673    300.75711   -692.43215 
   19710    4281.4506    302.05232    279.66996 
   19720    4282.3975    294.43088    201.56685 
   19730    4282.5151     298.7192    -79.42985 
   19740    4282.4028    299.66387    111.29233 
   19750    4282.8966    297.02303    530.92869 
   19760    4283.9268    299.28062    303.08738 
   19770     4285.408    295.30543   -781.17631 
   19780    4285.0493    298.47956    110.46836 
   19790    4283.8399    308.24787    577.44878 
   19800    4284.0643    303.06006   -1272.5068 
   19810    4284.6613    303.80896   -750.00991 
   19820     4285.496    301.73242     661.9811 
   19830    4285.8524    298.84758   -208.59506 
   19840    4284.5604    302.13755   -520.20089 
   19850    4283.3599    300.93055    424.31881 
   19860    4282.1239    300.85435    440.60609 
   19870    4282.1448     303.8403   -573.01159 
   19880    4282.2725    298.00688   -342.15872 
   19890    4281.7635    296.16864   -319.89355 
   19900    4280.3995    299.36503   -882.82692 
   19910    4279.1513    301.90523   -873.71691 
   19920     4280.314     298.9484    955.57646 
   19930    4281.6036    302.48334    452.22287 
   19940    4282.7458    294.47909   -687.59052 
   19950    4281.9911    301.97871    1013.7096 
   19960    4281.1702    307.88434    517.39937 
   19970     4282.776    298.95347   -878.30248 
   19980    4283.2083     303.7716   -1236.8809 
   19990    4283.4351    296.59559   -825.13893 
   20000    4281.9205    299.74487    -1181.617 
   20010    4279.1467    301.94546   -1501.2907 
   20020    4278.0125    302.09852    84.013389 
   20030    4278.4797    299.14181    413.89462 
   20040     4278.217    303.97369   -10.938539 
   20050    4277.2081     298.2744    1001.5294 
   20060    4275.9796    300.50885    1456.9837 
   20070    4275.7934    300.14049   -289.77397 
   20080    4277.3802    300.07356   -318.59363 
   20090    4277.4921    298.28571   -198.58576 
   20100    4276.9096    304.39342   -1132.5828 
   20110    4274.9086    301.80558   -1772.9602 
   20120    4272.6952    305.43097   -787.10783 
   20130    4274.0422    298.67853    1052.0968 
   20140    4274.8849    296.22301   -339.03922 
   20150    4271.2852    302.71529    237.62495 
   20160    4267.8313    298.33402    1116.5027 
   20170    4265.4001    312.52918    504.35689 
   20180    4267.3496    302.50687   -673.87469 
   20190    4268.0507    292.10504   -714.22476 
   20200    4266.2091    301.18202    -540.3574 
   20210    4263.3248    301.38019   -1616.1467 
   20220    4260.9593    301.63713   -603.18019 
   20230    4261.1891    303.83765    751.91266 
   20240    4263.0823    297.89124   -80.967756 
   20250    4262.1074    299.97033   -426.61774 
   20260     4259.239    301.57476    1403.9183 
   20270    4257.6708    303.58012    989.46625 
   20280     4258.134    301.93085   -1470.0887 
   20290     4259.107    299.86301   -683.27233 
   20300    4258.8127    300.56254   -136.77317 
   20310    4256.6581    299.56232   -1212.5941 
   20320    4253.8906    300.13929   -1053.8374 
   20330    4252.6266    304.59661    247.16678 
   20340    4253.4358    300.31896    103.35599 
   20350    4253.0424    298.54406    111.80763 
   20360    4250.9542    298.07707    1416.4609 
   20370    4249.7414    302.85683    771.10989 
   20380    4250.3685    303.83235   -824.32999 
   20390    4251.1062     299.1376   -231.16467 
   20400    4252.6726    298.63557    273.53789 
   20410    4252.8825    294.82211   -1511.7709 
   20420    4251.3077    298.76046   -1644.6699 
   20430    4250.5998    297.99482    367.50572 
   20440    4251.1098     301.3643     373.6889 
   20450    4252.0321     297.2375     -536.731 
   20460    4251.3794    302.85741    305.68923 
   20470    4251.1551    298.58267    856.20002 
   20480    4251.2771    301.09055    112.45173 
   20490    4251.0823    296.98487   -194.27991 
   20500      4251.23    300.39424    395.76973 
   20510    4252.8761    292.47312   -541.68555 
   20520    4254.3342    295.60923   -1349.1428 
   20530    4254.6703     297.7014    366.10127 
   20540    4256.2198    301.68423       371.17 
   20550     4256.673    302.62055   -1547.0486 
   20560    4258.0891    301.31242    271.28493 
   20570    4259.9055    297.81621    1781.5596 
   20580    4261.5241    296.77535    334.37706 
   20590    4262.1666    299.04629   -491.71801 
   20600    4263.7448    300.45508    347.13749 
   20610    4265.4523    304.65828    837.75388 
   20620    4266.8667    295.45942   -1100.0435 
   20630     4266.715    302.70624   -389.80033 
   20640    4267.4181    302.72235     870.6903 
   20650    4268.3535    300.17538   -592.16635 
   20660    4268.6913    305.52835     518.9894 
   20670    4269.4424    302.43181      1864.78 
   20680    4269.2714      303.446    150.09526 
   20690    4269.0905    304.45929    -780.1722 
   20700    4269.6873    297.28814    1071.2205 
   20710     4269.534    296.86987    180.03534 
   20720    4268.8583    297.34819   -1753.3377 
   20730    4268.6756    299.29326   -937.05028 
   20740    4268.9133    300.16397    260.98356 
   20750    4268.4114     299.1119    45.312703 
   20760    4267.8135    301.52115   -201.34098 
   20770     4266.656    300.68141    1359.8643 
   20780    4266.7537    301.98888    252.36244 
   20790      4267.91    300.00363   -1037.5589 
   20800    4267.9591    296.99376     240.9135 
   20810    4266.3292    302.97404   -334.57672 
   20820    4263.5528    296.69725   -2318.6246 
   20830    4260.8853    303.15599   -1394.9508 
   20840    4260.6167    299.85385    338.80137 
   20850    4259.4068    298.53189   -441.59694 
   20860    4255.3415    306.07034   -519.58959 
   20870    4252.8481    302.31533    887.32996 
   20880     4251.766    302.34223    1001.6727 
   20890    4251.7707    299.97081   -472.13811 
   20900    4252.7797     291.9379    346.07238 
   20910    4252.7104    301.21828    852.18792 
   20920    4250.7769    304.65322    -1727.872 
   20930     4250.298    296.37452   -505.02638 
   20940    4251.8891    298.80581    1088.8356 
   20950    4254.0163    300.52625   -747.09597 
   20960    4253.3691     297.3289    -1609.895 
   20970    4251.9717    298.36512    1189.5838 
   20980    4251.2564    303.97546    1547.4409 
   20990    4251.1309    304.47137   -914.97299 
   21000    4252.4959    299.20811   -162.76605 
   21010    4253.0519    294.85645    1120.1096 
   21020    4251.8745    295.95681   -885.76522 
   21030    4250.4968    298.40076   -981.15685 
   21040    4250.4754    301.52712    1051.9639 
   21050    4250.3339    305.65577   -780.39221 
   21060    4249.8582    302.19443   -1227.8733 
   21070     4250.163    296.48984    1425.4598 
   21080     4248.554    307.14703     1140.187 
   21090    4247.9033    299.19028   -1243.7267 
   21100    4247.7797    295.79041    252.58914 
   21110    4248.5888    301.37751    1933.2568 
   21120    4249.4215    297.04951   -717.94744 
   21130    4249.0517    299.26039   -1101.2305 
   21140    4249.1037    296.54191    931.41478 
   21150    4249.0277    300.40752   -214.34693 
   21160    4249.7686    306.18891   -1149.5105 
   21170      4250.73    297.91337    864.47834 
   21180    4250.4314    301.67637    1094.7037 
   21190    4251.2854    300.90869   -903.56178 
   21200    4252.7964    292.50495    561.25728 
   21210    4251.8249    301.60672    2289.5366 
   21220    4250.8462    296.09588   -675.51042 
   21230    4249.7494    301.95323   -1235.7133 
   21240    4250.2177    305.73342    659.32341 
   21250    4252.0171    300.96066    417.66179 
   21260    4252.4052    303.58094   -2192.1537 
   21270    4250.9606    299.91164   -580.16368 
   21280    4249.6263    304.65677     1419.018 
   21290    4249.4195    306.63511     -907.531 
   21300    4249.7442    295.52193    -151.7324 
   21310    4249.5326    300.77408     1483.169 
   21320    4248.3364    301.47079   -394.01397 
   21330    4247.1373    304.13414   -925.83928 
   21340    4245.6003    301.53458    898.56768 
   21350     4245.935    297.61996    376.98873 
   21360     4245.253     302.3008   -2565.1263 
   21370    4244.2994    299.90084   -498.40726 
   21380    4243.8076    300.87314    1994.4254 
   21390    4245.0885    294.93972   -1116.8482 
   21400     4246.403    295.03227   -884.85075 
   21410    4248.3916    293.93938    1835.2968 
   21420    4248.0827    297.21806    815.90643 
   21430    4247.8362    298.29346   -891.58182 
   21440    4250.3929    296.89047     477.5366 
   21450    4253.1433    295.72611   -98.670718 
   21460    4254.2405    300.12655   -2492.6116 
   21470    4252.9589    301.57402   -791.03823 
   21480      4253.72    301.01408     919.2455 
   21490    4255.3683    301.41261   -1767.4542 
   21500    4256.7317    301.75149   -1462.9786 
   21510    4257.2719    297.45212    2377.9252 
   21520    4256.2191    297.45655    941.27184 
   21530    4255.4383    304.82608   -1207.6995 
   21540    4256.7899    300.03638    201.52997 
   21550    4258.1493    306.20075    498.31602 
   21560    4258.2247    298.47005   -1876.8279 
   21570    4257.1168    298.78032   -1371.1264 
   21580    4257.2201     301.6586    863.15915 
   21590    4258.9665    296.46331    -683.2518 
   21600    4260.6322    300.70964   -596.83861 
   21610     4261.234     295.7675    2149.5605 
   21620    4261.2504    301.14743    722.63574 
   21630    4261.1262    304.88085   -1408.2493 
   21640     4260.139    305.65854    533.05251 
   21650    4260.2174    303.38316    800.38644 
   21660    4259.3686    301.38599   -2157.8467 
   21670    4258.1439     306.0218   -1838.7871 
   21680    4256.2112    303.07919    89.668215 
   21690    4254.4954    304.90199   -711.86166 
   21700    4253.0367    304.57121   -1262.0654 
   21710    4252.1356    302.87047    921.67149 
   21720    4251.4722     304.3977    1106.8587 
   21730    4249.2632    299.57957   -551.32418 
   21740    4246.1009    300.68458    767.19629 
   21750    4245.3821    303.93361    1075.3715 
   21760    4244.7809    301.56248   -1638.7378 
   21770    4243.7615    297.57107   -1913.2341 
   21780    4242.5622    297.12853    571.38925 
   21790    4240.3887    299.11052   -686.90837 
   21800    4238.6721    309.33335   -1171.4663 
   21810    4237.9283    299.61762    1521.6378 
   21820    4238.6024    304.28549    2321.5299 
   21830    4238.8108    297.78931   -87.375068 
   21840    4237.7529    298.39087     394.1526 
   21850    4234.9983     300.7285     1767.191 
   21860    4233.2401    298.89838   -1643.2328 
   21870     4232.669    300.51605    -1595.855 
   21880    4232.3445    303.69609   -35.703286 
   21890     4231.632     296.3047   -864.28018 
   21900    4228.4359    300.42895   -1321.6114 
   21910     4226.326    300.25773    2047.8599 
   21920    4225.6613    302.99291    3091.1897 
   21930    4226.2059    303.18015    217.36598 
   21940    4225.3827    296.44015    1302.6922 
   21950    4223.3906    302.61393    2343.9048 
   21960    4222.1464    301.50636   -374.95897 
   21970    4223.1524    295.51108   -2232.6895 
   21980    4223.9191    299.89922   -122.22311 
   21990     4224.435    294.09753   -794.24742 
   22000    4223.2263    295.62396   -1828.4076 
   22010    4221.2944    304.62727    1226.2095 
   22020     4221.801    295.58019    1685.5522 
   22030    4222.4319    297.63971     223.8447 
   22040    4222.5524    300.48477     726.2445 
   22050    4219.9282    305.70048    2335.6768 
   22060    4215.7743    309.96333   -629.51683 
   22070    4213.6064    306.25448   -2861.9912 
   22080    4214.1854    300.23415   -270.62666 
   22090    4213.6343    304.56497    65.874422 
   22100    4211.9973    292.80597   -2358.8801 
   22110    4208.7847    303.65025     85.24286 
   22120    4207.4802    304.14783    2967.9619 
   22130    4209.1516    298.48123    914.42223 
   22140    4210.8558    295.67751    861.51645 
   22150    4210.5326    294.72698    2138.7141 
   22160    4208.4184    302.38372   -72.669339 
   22170    4207.2382    308.36449   -2142.4687 
   22180    4208.0528    305.87185   -475.28907 
   22190    4209.3727    295.42428   -152.79875 
   22200    4208.9297    292.39642   -3328.5123 
   22210    4206.2562    296.39184   -71.807245 
   22220    4204.4196    300.05488    3065.0481 
   22230    4204.1927      300.923    256.73634 
   22240    4205.9656    301.97634   -229.50621 
   22250    4206.8441    303.24363    2064.2246 
   22260    4206.8197    296.95649    763.05921 
   22270    4205.8926    299.03289   -1730.3337 
   22280    4206.1942    301.83819    11.573359 
   22290    4209.4012    299.43356   -187.23911 
   22300    4211.4423    298.97981   -1747.6627 
   22310    4210.5985    302.85343    61.566536 
   22320    4209.7554    297.69156    2134.7061 
   22330    4209.4099    303.47839   -355.04784 
   22340    4212.9577    298.55823   -1083.0331 
   22350     4215.754    297.88877    2606.5496 
   22360    4216.2378    296.37178    381.21405 
   22370    4215.0573     301.6035   -2047.9138 
   22380    4215.1657    303.54438   -472.66081 
   22390    4218.4522     297.7353     894.8749 
   22400    4221.4893    295.08584   -721.84105 
   22410    4223.1252    294.74082   -1157.9153 
   22420    4223.7023    301.32167    1434.2656 
   22430    4224.0177    300.14216   -482.67535 
   22440     4225.153    297.17745   -951.32946 
   22450    4227.9858    297.60724     1306.957 
   22460    4230.0121    295.53934    59.074075 
   22470    4230.2644    299.19648   -2457.1598 
   22480    4230.0971    297.66827   -119.79291 
   22490    4231.4601    299.66364    1615.6819 
   22500    4233.8253    299.67577   -1804.5703 
   22510    4235.3977    294.26167   -1744.4783 
   22520     4235.468    297.90134      1145.89 
   22530    4237.1981    292.28559    526.56102 
   22540    4238.9178    299.21639   -1317.2656 
   22550    4241.6826    299.76626    563.50998 
   22560    4244.4096    301.42157    326.30808 
   22570    4244.9266    302.91165   -2267.6432 
   22580    4245.6213    300.09822   -420.11778 
   22590    4245.7625    302.79018    462.93608 
   22600    4246.6597      296.926    -2811.612 
   22610    4245.4737    298.00693   -1766.1487 
   22620    4244.5955    305.48612    1869.8922 
   22630    4245.3828    295.62349    309.17921 
   22640    4247.0156    300.17985   -984.31738 
   22650    4249.1999    293.87943    1343.8971 
   22660    4250.6192    295.45648    1551.4427 
   22670    4250.5421     304.8404   -882.54437 
   22680    4251.5579    302.72945   -718.01154 
   22690    4255.2844    301.06737    368.32271 
   22700    4258.7128    297.49564   -2141.4529 
   22710     4258.326    295.57654   -1762.4686 
   22720    4255.2045    305.71002    774.74287 
   22730    4253.5839    304.59453   -723.58273 
   22740    4254.0384    307.52292    -1541.752 
   22750    4256.1413    296.61143    830.10737 
   22760    4256.7401    298.65922    1755.5408 
   22770    4253.8376    296.98367   -1241.8076 
   22780    4250.5549    303.69386   -885.39538 
   22790    4250.4532    307.78003    1075.0652 
   22800    4252.8926     298.9094   -944.89984 
   22810    4252.8167    300.74564   -1914.6381 
   22820    4251.0177    303.60728   -57.623868 
   22830    4248.5385    304.16116   -47.732426 
   22840    4246.4352    302.79704   -888.78121 
   22850    4246.1172    300.29724    958.55455 
   22860    4246.1441    300.84711    1536.4658 
   22870    4245.2671    304.67047   -1181.1538 
   22880    4242.0497    299.29863   -862.14107 
   22890    4240.7622    306.73513    1001.5711 
   22900    4240.0819    295.28966   -1439.0358 
   22910    4238.1304    293.64542   -2144.3924 
   22920    4236.3757    299.09818    1076.9261 
   22930    4235.9377    297.81925    1584.2075 
   22940    4236.3118    297.74231   -366.88182 
   22950     4236.315    296.68957    1107.6192 
   22960    4237.1305    296.52588    2096.4555 
   22970    4237.6558    298.54943   -964.69726 
   22980    4236.3351    299.85921   -1045.5106 
   22990    4236.2014    307.35871    697.94393 
   23000    4236.9405    300.75526   -1391.2044 
   23010    4236.1887    301.58555   -2570.4499 
   23020    4234.7569     301.6498    1242.1456 
   23030    4234.3832    298.35995    1554.7431 
   23040    4233.8271      299.272   -1123.9682 
   23050    4233.2323    305.41083    702.85744 
   23060    4234.1633    302.96851    2559.9838 
   23070    4233.9429    301.76865    137.31745 
   23080    4234.1986    299.26233   -1675.8113 
   23090    4234.7464    302.58972    793.98366 
   23100    4234.5602    302.12422   -657.12516 
   23110    4233.0008    301.65913   -2422.4928 
   23120    4231.5048     299.4546    869.77527 
   23130    4230.2736    306.17097    751.07931 
   23140    4228.5217    299.53856   -1163.1462 
   23150    4226.5443    300.62497    805.44406 
   23160    4226.0209    304.75341    2998.8429 
   23170    4225.8438    297.76426   -291.49984 
   23180     4223.823    306.46473   -1845.9438 
   23190    4220.7988    304.60562    849.65922 
   23200    4218.1584    299.93408   -287.99985 
   23210    4216.1981    301.46262   -2401.6478 
   23220    4214.5514    298.72691   -632.52805 
   23230    4212.5658    303.70577    761.99794 
   23240    4209.4937    298.87379   -1098.4073 
   23250    4207.8066    301.94715    565.67352 
   23260    4208.2578    300.94558    2240.9746 
   23270     4208.107    299.03819    -519.3397 
   23280    4207.2958    302.34894   -852.22936 
   23290    4204.9569    304.01468    897.36529 
   23300    4202.8652    309.46081    6.5265101 
   23310    4202.4127    303.34024   -2643.9893 
   23320    4201.5098     296.7849   -847.86948 
   23330    4200.1409    296.59285    1086.2527 
   23340    4198.2784    294.72463   -595.82866 
   23350     4196.252    299.89329    372.65457 
   23360    4196.0835    298.92281    2183.0362 
   23370     4197.462     300.6172     586.4721 
   23380    4197.5794    302.22434   -549.35985 
   23390    4197.7163    298.98698    1373.8896 
   23400    4197.8302    297.10919    162.01403 
   23410    4197.9499    299.66744   -2545.9976 
   23420    4198.1507    296.68862   -591.18907 
   23430    4196.8457    300.14822    1002.6819 
   23440    4196.3153     301.7355   -1216.3544 
   23450    4196.2823    297.08217   -1141.5045 
   23460    4196.0652     303.4462    2486.5045 
   23470    4197.2469    293.83215     999.6733 
   23480      4196.93    298.22177   -836.97993 
   23490    4196.3077    303.49414     1516.922 
   23500    4196.0579    299.66513    913.07798 
   23510    4196.1546    296.21203   -1111.9795 
   23520    4195.8254    297.70782   -236.67959 
   23530     4196.145    294.94945    518.70034 
   23540    4195.5622    301.75052   -1253.1989 
   23550    4195.3578    303.17088   -1596.6256 
   23560    4195.7943    300.27134    1236.7456 
   23570    4196.3215    303.22667    446.50371 
   23580    4197.3782    295.34335   -1548.8206 
   23590    4197.0056    301.96141    1181.8735 
   23600    4197.3362     300.2396    1433.3185 
   23610    4198.1206    301.83445   -547.30862 
   23620    4198.4918     305.6465   -296.52835 
   23630    4197.6004    305.92124    629.45929 
   23640    4196.0856    299.26142   -1370.9164 
   23650    4194.9418    306.91464   -1753.6427 
   23660    4194.9361    301.08508    269.63206 
   23670    4194.2156     300.1696    173.46273 
   23680    4192.0985    299.67427    -1428.106 
   23690    4190.5169    296.09471    319.29094 
   23700    4189.4431     308.0325    2435.8731 
   23710    4189.9132    295.43534   -1004.3217 
   23720    4189.8768    294.61477   -974.17627 
   23730    4188.9495    299.73984    1602.9359 
   23740    4187.7142    303.30302    9.2115213 
   23750    4187.4154    300.47918   -1440.7232 
   23760    4188.8325    299.20107    70.744896 
   23770    4190.2944    293.44596    582.71123 
   23780     4189.907    296.68442   -1255.5258 
   23790    4188.6156    301.36861   -260.21401 
   23800    4189.3913    298.55366    1054.2667 
   23810    4190.4574    302.49361    -1150.869 
   23820    4191.1154    301.64326   -1076.5451 
   23830     4190.582    302.53823     1378.676 
   23840    4189.5973    299.27523   -17.032893 
   23850    4189.6893    295.10377   -1532.5316 
   23860    4190.4252    302.56855    844.46354 
   23870    4190.4987     300.9762     558.9358 
   23880    4190.2605    295.80838   -1401.5735 
   23890     4189.643    305.88168   -787.17234 
   23900     4190.881    297.79088    398.66556 
   23910    4191.7723    298.27207   -926.86521 
   23920    4191.5634    297.80033   -1326.8111 
   23930    4191.8672    296.68834    1126.8568 
   23940    4191.4336    305.32243   -195.18457 
   23950    4190.7274    299.51427   -1180.3857 
   23960    4191.6652    300.01751    1169.4747 
   23970    4192.5979    298.49134    922.08627 
   23980    4194.1086    295.41457   -1150.7549 
   23990    4194.5293    298.58904   -66.128488 
   24000    4195.3575     297.8084     1288.245 
   24010    4196.6079    302.92511   -860.45686 
   24020    4198.1026     298.7454   -1098.6614 
   24030    4199.8108    298.46275    759.89701 
   24040    4201.3035    296.75544    292.62474 
   24050    4201.4058    294.22652   -1257.5895 
   24060    4200.9973    300.79256    1016.1301 
   24070    4203.3929    297.76561    1601.3361 
   24080    4205.5422    297.37616   -1041.5435 
   24090    4205.7858    302.33657    536.44712 
   24100    4205.1099    299.74815    1260.7377 
   24110    4204.4678     304.8439   -1076.0632 
   24120    4206.2465    297.86632    -1247.285 
   24130    4209.3606    294.74598    671.86367 
   24140    4209.7269    294.62547    -621.1815 
   24150    4208.0405    296.10814   -1550.5817 
   24160     4206.849    301.25443     980.4532 
   24170    4207.5908    303.55384    903.53709 
   24180    4210.6748    298.90364   -367.34931 
   24190    4210.9676    300.11434     42.46706 
   24200    4209.5575    302.55248    2146.3401 
   24210    4207.6716    302.65496   -181.18893 
   24220    4206.6598    304.58447   -1256.6587 
   24230    4207.9483    304.67104    1227.9086 
   24240    4210.2439    299.43029   -438.92668 
   24250    4210.1139    300.94955   -1062.4254 
   24260    4208.2406    299.71846    184.88979 
   24270    4207.3365    303.33586    1232.1091 
   24280    4208.3778    306.29665   -808.98493 
   24290    4209.7913    292.75395   -604.05792 
   24300    4210.3328    291.73814    1216.2148 
   24310    4208.6702    297.64638   -245.02991 
   24320    4206.3262      299.668   -1775.2681 
   24330    4204.8827    310.74975   -200.76536 
   24340    4205.9239    295.90998    315.90398 
   24350    4206.3818    300.58493   -1660.2905 
   24360    4205.6809    300.46987   -76.421906 
   24370    4204.2936    301.94244    1865.0478 
   24380    4202.7959     305.2779   -328.98956 
   24390    4202.6275    297.61297   -152.10076 
   24400    4202.3034    299.10424    1141.9862 
   24410    4202.4857     298.1676    244.77301 
   24420    4202.8431    293.92515   -1417.8328 
   24430    4202.8345    297.25771    362.99072 
   24440    4202.5786    301.85362    439.17064 
   24450    4202.5027    299.72759   -1731.4259 
   24460    4202.1571    306.37882     52.32077 
   24470    4202.1979    298.84552    827.57285 
   24480      4202.42     301.6671   -65.697214 
   24490    4203.0554    304.16271   -454.87708 
   24500    4203.9599    304.13306     1809.902 
   24510    4203.5505    298.02937    85.239024 
   24520    4202.7668    303.01384   -1484.8655 
   24530    4202.4722    304.24576    161.84876 
   24540    4202.1968     301.7364   -337.45538 
   24550    4201.3124    299.56156   -1304.3499 
   24560     4199.052    294.51524   -1559.3403 
   24570    4197.5071    297.58661    1614.2139 
   24580    4195.2281    302.07847   -351.84565 
   24590    4194.3617    298.63408   -1200.1115 
   24600    4193.5592    302.13553    1061.5203 
   24610    4192.8562    303.19102      5.27313 
   24620    4191.5146     302.1366   -804.32441 
   24630    4189.8973    303.27617   -422.85567 
   24640    4190.2624    298.54555    798.89081 
   24650    4190.0354    302.19393   -1117.9779 
   24660    4188.9085    301.83796    -322.0503 
   24670    4188.9422    297.14129    1356.0888 
   24680    4188.1317    300.06526    -743.0423 
   24690    4187.9456     294.1105   -1254.4818 
   24700    4189.4135     294.2471    967.44441 
   24710    4190.0524    298.81495     621.1718 
   24720    4189.5078    293.62549   -2467.1648 
   24730    4187.9854    295.64307    807.06442 
   24740    4188.2796    306.58259    1257.1586 
   24750     4190.452    295.44076   -1658.3726 
   24760    4191.2011    299.51602    241.04853 
   24770    4191.8085    303.66403    1764.7451 
   24780    4191.4849    300.82718   -276.17695 
   24790     4190.777    307.11903   -1939.6237 
   24800    4191.3708    301.20403    1221.9374 
   24810    4192.2507    297.91533    696.73045 
   24820    4190.2462    306.00472   -2023.6311 
   24830    4188.8471    305.63932   -25.045673 
   24840    4187.4373    302.67236    768.63404 
   24850    4186.1166    307.36663   -805.64119 
   24860    4184.7988    302.83059   -727.61452 
   24870    4183.3482    301.76883    585.77753 
   24880    4181.6356    300.46195   -404.50781 
   24890    4178.5213     302.2136   -1199.9121 
   24900    4175.5546    298.55303    499.45659 
   24910    4173.7752    302.91771    158.66105 
   24920    4171.7035    300.06788   -1672.0389 
   24930    4169.8238    297.39776    -313.2654 
   24940    4169.1421    297.77605    2046.5762 
   24950    4168.5626    298.78412   -132.11019 
   24960    4166.1548    305.64387   -599.69791 
   24970    4165.7998    299.96761    970.41369 
   24980    4164.5773    305.41545    594.36947 
   24990    4163.5214    303.55496   -1010.2908 
   25000    4163.1114    293.57105   -781.76666 
   25010    4161.3241    301.42228    1014.5002 
   25020    4160.8807    298.01445   -754.90516 
   25030    4159.8004    298.17507   -138.21597 
   25040     4159.956    301.92111    2126.3561 
   25050    4160.2357    296.43106    309.07628 
   25060    4160.9721    302.14568   -152.33467 
   25070    4161.3519    303.37956    1585.0048 
   25080     4161.429     298.8376     639.3554 
   25090     4161.094    306.76228   -828.90494 
   25100    4161.1927    298.48771   -595.17325 
   25110    4159.6594    303.82264    736.89918 
   25120     4158.302    305.28264   -395.89851 
   25130    4158.1788    302.25614   -955.27845 
   25140    4157.7796    302.73179    605.30441 
   25150    4156.1728    297.98395   -214.67807 
   25160    4154.8085    298.61253   -224.12631 
   25170     4153.834    298.85334    658.20408 
   25180     4154.197     297.7422      420.557 
   25190     4155.623    298.42482   -705.62621 
   25200    4155.8006    295.51838    -604.9287 
   25210    4155.2318    298.09645    704.79597 
   25220     4154.125    301.65158   -266.98249 
   25230    4154.2354    303.25624   -835.35777 
   25240    4154.1865     301.5058   -176.22903 
   25250    4154.2041    301.21566    655.68641 
   25260    4152.5029    304.29395   -281.99367 
   25270    4149.8342    302.34127    -248.1631 
   25280    4149.2322    304.71415    752.83375 
   25290     4150.437    299.18104   -867.33632 
   25300    4151.1407    296.75869   -138.58738 
   25310    4149.9428    302.54566    551.32991 
   25320    4147.9689    299.48198   -437.92475 
   25330    4149.0278    297.83306    -1025.071 
   25340     4150.453     297.4646   -174.20418 
   25350    4150.7273    294.82794    346.02855 
   25360    4148.6908    300.18533    -899.7161 
   25370    4147.0987    301.30846   -305.39435 
   25380     4146.793    308.26017    1110.8808 
   25390    4147.0568    303.10917   -192.98021 
   25400    4146.5195    302.95868   -6.5155155 
   25410    4145.1527    302.46871    386.22971 
   25420    4141.7629    303.70381   -1401.1269 
   25430    4139.5432    306.00692   -1172.6101 
   25440    4138.3916    302.11702    6.6235304 
   25450    4137.9256    299.59713   -1124.8484 
   25460     4136.093     300.2178   -822.21945 
   25470    4133.4215    301.79631    250.08779 
   25480    4132.1162    296.93645    779.41401 
   25490    4132.6703    297.74082    601.02508 
   25500     4134.001    295.65216    228.50832 
   25510    4134.0901    295.02072    611.99624 
   25520    4131.5746    299.69083   -319.21322 
   25530    4130.2373    305.77554   -286.16011 
   25540    4131.0833    304.22599    12.291478 
   25550    4133.2618    301.80658   -1614.4724 
   25560    4133.9663    295.63792   -1331.3446 
   25570    4132.7776    295.86964    530.80426 
   25580    4131.2178    300.14078    269.05994 
   25590    4131.2014    297.47156    200.52809 
   25600    4131.9988    300.98987    677.79952 
   25610    4132.8281    296.33244    1102.1101 
   25620    4132.7639    299.57088    1394.1017 
   25630    4131.0099    305.41404    27.341835 
   25640     4131.154    299.24146    154.60329 
   25650    4132.0831    301.44019   -106.63771 
   25660    4134.2642    303.16301    -693.1463 
   25670    4136.0492    295.40216    557.06909 
   25680    4134.7936    304.42142    -366.8141 
   25690     4133.584    301.14854   -420.90646 
   25700     4134.165    302.49506    954.03854 
   25710    4136.0487    296.15247    644.40467 
   25720    4138.4444    294.75887   -37.798819 
   25730    4138.7987    291.65553   -526.89362 
   25740    4137.8484    299.74438    830.92616 
   25750    4136.9874    303.82898    826.34397 
   25760    4138.3804    307.16223   -166.83693 
   25770    4140.1078    297.39053   -92.249378 
   25780    4141.0604    302.55845    511.86785 
   25790    4140.8293    296.83315   -471.69814 
   25800    4140.4873    304.00915    478.59058 
   25810    4139.9946    300.64667    657.20004 
   25820    4140.0818    301.53674   -187.38615 
   25830     4140.547     301.2711    606.40629 
   25840    4140.2975    292.71742    870.19689 
   25850    4140.0109    300.84989    1142.4231 
   25860    4140.0659    302.72005   -869.17604 
   25870    4140.6725    296.31167   -850.31603 
   25880     4140.828    298.85454    1012.6585 
   25890    4140.0162    301.52732   -545.68033 
   25900    4138.7838    306.57299   -660.05453 
   25910    4138.4231    304.24519   -280.35678 
   25920    4138.9682     302.8486    309.10753 
   25930    4138.1373    302.40141    544.10398 
   25940    4139.0312    297.66178   -25.037819 
   25950    4138.8768    303.11151   -52.092786 
   25960    4138.2028    296.77773   -380.38027 
   25970    4136.8864    297.80617   -421.64049 
   25980    4136.1898    300.90346    198.57167 
   25990    4136.7813    300.00697   -374.14187 
   26000    4137.8685    290.85111   -951.68833 
   26010    4137.2938    298.01555    877.75369 
   26020    4136.8871    291.60653    1062.8656 
   26030    4136.4904    300.65123    206.37343 
   26040    4137.1048    297.77224    187.40328 
   26050    4138.6307    302.27489     41.09882 
   26060    4141.1453     301.2718    400.61135 
   26070    4143.0111    304.16259     234.4241 
   26080    4144.6225    293.87791    -782.2864 
   26090    4145.7001     299.5509   -517.99696 
   26100     4147.048    299.17977    107.74439 
   26110    4147.8964    299.28113    841.90293 
   26120    4149.8476    300.60791     271.4869 
   26130    4151.4735    294.05264   -813.42301 
   26140    4151.6075    297.75031    157.24159 
   26150    4152.1712    300.76897    820.35487 
   26160    4153.3444    297.07398   -934.93069 
   26170    4155.7622    299.19251   -1032.5568 
   26180    4157.3129    299.04214   -142.69426 
   26190    4157.7744    304.92698    136.49347 
   26200    4158.2167     305.9276    663.58107 
   26210    4159.6102    299.00599    -52.41863 
   26220    4160.8166    299.13577    87.014286 
   26230    4161.4229    299.22391   -301.72129 
   26240    4162.7024    296.70903   -64.378098 
   26250     4162.692    299.51746    278.78895 
   26260    4161.7865    299.98187   -2149.9296 
   26270    4161.0481    303.13062   -1000.1039 
   26280    4161.9512    297.52225    495.42461 
   26290    4162.0479    300.31749   -507.99128 
   26300    4161.7378    299.32502   -833.69319 
   26310    4160.9538    301.61642   -307.96243 
   26320    4160.5175    308.72134    672.27243 
   26330    4161.3656    297.12351    81.349427 
   26340    4161.5066    300.86912    165.29204 
   26350    4162.1831    300.19112   -1223.1161 
   26360    4161.4198    302.62352   -1591.7512 
   26370    4161.0513    301.52483   -488.60325 
   26380    4159.2817    299.34807   -87.928828 
   26390    4157.5227    300.20359   -597.15179 
   26400    4155.7078    301.17061   -846.31461 
   26410    4155.4125    296.65672    1693.5838 
   26420    4156.0458    298.87916    533.39974 
   26430    4155.2489    297.72484    228.94367 
   26440    4154.1434    303.33615   -58.868853 
   26450    4152.8147    301.49967   -1495.2714 
   26460    4153.7391    299.72283   -545.95166 
   26470    4154.8238     298.2639   -800.51517 
   26480    4154.9182     298.2107   -1012.9664 
   26490    4152.7484    300.02242   -1580.8898 
   26500    4151.2775    305.63346    626.40726 
   26510    4152.7315    299.36709     1553.613 
   26520    4153.2585    301.76609    283.15777 
   26530     4153.504    304.15041    87.210507 
   26540    4153.7069    299.72068    651.10093 
   26550    4153.2851    304.75754    352.64435 
   26560    4153.6333    301.16422   -1248.4304 
   26570    4153.8947      300.829   -762.57781 
   26580    4154.3262    298.95453    -1870.994 
   26590    4152.2093    304.36387   -430.41482 
   26600    4150.8419    300.86413     471.1637 
   26610    4149.7843    300.21958   -460.97045 
   26620    4149.6758    298.97059    311.04852 
   26630    4149.1396    300.32543   -710.77114 
   26640    4146.7534    294.98356     521.6472 
   26650    4143.6819    305.75628   -497.89805 
   26660    4140.6013    306.39342   -1830.3306 
   26670    4139.7006    305.88925   -406.62837 
   26680     4139.482    298.31062   -140.47255 
   26690    4137.5758    301.47085    851.34187 
   26700    4135.1307    303.13214    346.63853 
   26710    4134.0318    304.69674    661.53008 
   26720    4134.1722    305.77473    1436.2083 
   26730    4135.0415    295.76155    551.91591 
   26740    4133.6846    301.62069   -249.95658 
   26750     4132.074    302.00112   -235.28487 
   26760    4131.0764    296.99015   -1604.6472 
   26770    4131.2401    298.10506   -1072.9184 
   26780    4131.4078    295.04416    716.46447 
   26790    4130.9595    300.85228   -940.59018 
   26800    4129.2151    297.16419   -239.45579 
   26810    4128.2964    297.69107    1158.0503 
   26820    4126.9971    303.43644    1723.2631 
   26830    4127.8024    301.81578    562.60685 
   26840    4128.6326     301.5323   -624.00738 
   26850    4128.1242    297.38997    848.07595 
   26860    4127.5713    300.38199   -9.5440769 
   26870    4127.4873    300.14723   -1002.8926 
   26880     4126.959    301.95744   -560.15733 
   26890    4125.7895    300.12243   -1036.7967 
   26900    4124.7574    304.28441   -426.80925 
   26910    4123.0394    299.73175    560.34179 
   26920    4121.3597     297.2475    576.40369 
   26930    4120.7829    297.01005   -65.371311 
   26940    4119.5212    301.67254    653.60005 
   26950    4118.9919    296.54297     1322.372 
   26960     4117.926    308.53566    1240.2462 
   26970    4119.1044    296.24789   -738.65103 
   26980    4119.5848    298.91815    70.691761 
   26990    4119.8411    300.00497    1017.1979 
   27000    4118.7138    298.17172   -736.80779 
   27010    4117.9525    301.82032    201.88357 
   27020    4119.5123    300.89771    683.66685 
   27030     4120.546    297.75157    149.60697 
   27040    4119.9863    301.09365    575.36564 
   27050    4118.5545    295.57959    1089.8723 
   27060    4116.8545    306.66326    530.26192 
   27070    4117.7702    300.78471   -1645.5613 
   27080    4118.7327    296.02176    378.52583 
   27090    4117.7635    296.75424    1439.5683 
   27100     4116.311    295.93418   -527.92712 
   27110    4115.7419     304.0456   -413.86473 
   27120     4118.029    299.44863    1157.3616 
   27130    4120.5164    297.93805    1349.2673 
   27140    4121.6227    298.92285   -639.07876 
   27150    4119.6026    306.14757   -44.178296 
   27160    4118.3397       305.79   -502.77395 
   27170    4119.1461    301.31842   -564.71767 
   27180    4122.0195    300.81442   -499.43278 
   27190    4123.0611    298.76654   -571.44854 
   27200    4120.3259    301.52467   -1069.5087 
   27210    4116.0501    311.59481   -745.48434 
   27220    4115.2621    300.71617    1140.5153 
   27230    4116.4854    304.56976     617.9583 
   27240    4116.7177    298.49507   -989.22656 
   27250    4115.1135    295.66293   -804.24225 
   27260    4111.2351    301.99205    815.30446 
   27270    4110.2541    297.76711   -251.34852 
   27280    4111.6375    300.66697   -843.19575 
   27290    4113.6589     295.1649   -99.635412 
   27300    4115.5057    295.20003    620.41865 
   27310    4114.9418      301.403    1363.0406 
   27320    4114.2728    302.09194    950.12096 
   27330    4116.3736    301.66874    1003.6425 
   27340     4120.364    296.92762   -1032.2198 
   27350    4124.1883    290.64214   -195.15133 
   27360    4123.5766    296.63722    549.88963 
   27370    4123.1942    298.69522   -1897.5458 
   27380    4123.5759    301.34434   -1973.3431 
   27390    4126.2993    296.70325    28.498316 
   27400    4128.1746    298.75747    827.22647 
   27410     4129.001    295.73124   -887.87305 
   27420    4127.8574    297.71084    163.45009 
   27430    4126.9337    305.34277    1118.7583 
   27440    4127.8986    303.13449    681.56133 
   27450    4129.8767    299.36269   0.65959655 
   27460    4130.9067    299.01298    26.436604 
   27470    4128.9779    299.30625   -1391.1039 
   27480    4126.5307    305.28225   -2237.3659 
   27490    4125.9107    297.39609    503.52494 
   27500    4128.2725    295.27577   -630.00595 
   27510    4129.5722    290.05799   -1565.0816 
   27520    4127.9657    296.57263   -144.04847 
   27530    4126.1127    303.79031     2440.889 
   27540    4127.1282    298.17061    1527.8495 
   27550    4130.3342    299.38128   -214.35276 
   27560    4132.7372    295.76583    1172.5684 
   27570    4132.1529    299.54925    235.56505 
   27580    4130.0831    302.54587   -884.09492 
   27590    4129.6075     303.6416   -709.34545 
   27600    4132.9037     303.5243   -973.00511 
   27610    4136.5942    296.75937   -1964.6338 
   27620    4136.8302    292.90736   -322.33531 
   27630    4135.0503    303.71318    1155.2166 
   27640    4135.0786    300.87554   -289.19765 
   27650    4137.4276     305.1641    15.490377 
   27660    4140.9144     298.0967     1160.322 
   27670    4141.3346    293.72371    634.78639 
   27680    4138.6109    302.07776   -1727.8328 
   27690    4135.6417    308.17271   -1012.4188 
   27700    4136.9354    307.65443   -296.95339 
   27710    4139.5806    301.68971   -1708.7962 
   27720    4140.3911    295.42102   -569.42537 
   27730    4138.1052    299.06936    296.85325 
   27740    4135.6136    303.30953    16.544962 
   27750    4135.2094    303.98621    -119.8502 
   27760    4138.5665    300.10092    1903.3497 
   27770    4140.9955    297.77988    890.59663 
   27780    4140.2834    297.48645    -1467.194 
   27790    4137.2652    301.94222    5.0796041 
   27800    4136.8642    304.84724    419.46713 
   27810     4138.439    296.95703   -1652.7745 
   27820     4139.708    299.44552   -1972.1301 
   27830    4139.6872    298.52027    338.06752 
   27840    4138.6364    298.17856   -400.30036 
   27850    4136.5728    304.80464   -203.14909 
   27860     4138.299    301.71461    1481.3631 
   27870    4140.7079    299.01374    268.86911 
   27880    4140.8543    298.00487   -670.07805 
   27890    4138.2965    303.73834    386.73954 
   27900    4135.7527    306.08624    872.41743 
   27910    4136.0861    306.01093    -1237.386 
   27920    4136.7387    300.17959   -1867.5998 
   27930    4136.3873    297.74622     430.2016 
   27940    4134.3371    294.84279    88.861491 
   27950     4132.018    299.75581    -613.8874 
   27960    4131.1413    302.38634    599.46508 
   27970    4132.2791    298.67945    889.42546 
   27980     4132.887    298.91446    360.24693 
   27990    4132.0082    299.77901     1067.852 
   28000    4131.2625    304.71622    646.06032 
   28010    4129.5988    300.47858   -983.85213 
   28020    4128.7572    301.59493   -477.73508 
   28030    4129.3312    299.65864    286.48913 
   28040    4129.4716    298.66662   -396.36708 
   28050    4128.1897    297.93936   -2038.6971 
   28060    4125.7413    297.13093    73.592393 
   28070    4126.8536    294.96822    1042.8844 
   28080    4127.4559    300.55458   -339.37066 
   28090    4127.1032    296.58904   -639.51089 
   28100    4125.2286    297.04422    614.40411 
   28110     4123.465     306.3786    299.78643 
   28120    4122.0304    297.30052   -1138.4888 
   28130    4120.5052    306.17697     513.2298 
   28140    4119.8604    300.04139   -538.89599 
   28150    4119.2148    300.63323    -1286.941 
   28160    4117.8229    302.48308    99.049662 
   28170    4116.8959    296.89121    1047.5443 
   28180      4115.42    301.86343   -514.80723 
   28190    4114.6655    301.28382   -864.63152 
   28200    4114.7311    303.34311    2682.4869 
   28210    4114.6852    302.87798     356.5062 
   28220    4114.7655    299.82202   -1394.4361 
   28230    4114.7879    301.79007    667.17424 
   28240    4115.0975    298.18433    332.02903 
   28250    4115.1186     300.3174   -1339.2683 
   28260    4115.8289    305.31233    119.61533 
   28270    4117.6941    299.26567    778.65143 
   28280    4118.2656    298.34402   -1099.1478 
   28290     4118.842    291.86354    -634.7385 
   28300    4118.1691    296.18355    1346.1569 
   28310    4117.6885    304.51407    176.37078 
   28320    4118.2371    295.28393   -2187.6241 
   28330    4118.7153    303.47849    1315.8336 
   28340    4117.7699    301.42929    1609.0537 
   28350    4116.7957    301.20325   -2155.7562 
   28360    4116.1439    301.24667   -835.24294 
   28370    4116.6634    293.23876    461.91347 
   28380    4116.2906    298.76379   -1384.1174 
   28390    4115.8086    299.97649   -862.38319 
   28400    4115.6888    302.01598     866.1531 
   28410    4115.7769    301.95231   -98.865788 
   28420    4117.4358    296.59947   -693.84372 
   28430    4117.6408    299.89432    1735.8967 
   28440    4117.7052    300.70715    1829.9602 
   28450    4117.2916    300.20587   -2183.4535 
   28460    4116.3335    302.42779   -724.10034 
   28470    4117.1491    302.33697    912.79282 
   28480    4117.4804      298.898   -1841.9547 
   28490    4115.8189    301.25502   -2193.1522 
   28500    4113.8608    299.79565    23.056794 
   28510    4112.4416    301.28158    643.37528 
   28520    4111.7161    303.40115   -661.64908 
   28530     4111.027    295.57967    1004.4507 
   28540    4109.9394    298.74491     1135.205 
   28550    4108.9123    299.55213   -843.39387 
   28560      4107.42    302.45112    728.30314 
   28570    4107.2965    301.68009    1258.8534 
   28580    4108.3374    293.69765   -1963.5089 
   28590    4108.6376    296.46224   -2214.9183 
   28600    4108.0376    298.92314    1187.3935 
   28610    4108.8441    300.09129    393.44759 
   28620     4109.396    303.50433   -1207.0932 
   28630    4109.6923    298.86775    462.64011 
   28640    4110.5889    303.32973    2047.6584 
   28650     4110.501    300.55121    1328.8588 
   28660    4110.0969    300.30561   -656.05442 
   28670    4109.8287    303.68362    790.28373 
   28680    4109.9369    298.83782    -1289.217 
   28690    4109.3589    303.33195   -1710.4434 
   28700    4108.8226    297.37352    992.38575 
   28710    4108.3263    297.02284   -400.56514 
   28720    4106.5071    303.64855   -1492.4696 
   28730    4105.7463    299.66679    712.17476 
   28740    4106.0627    298.18922     3330.192 
   28750    4105.8295    301.29521    525.55033 
   28760    4105.4878     306.3195   -1194.2511 
   28770    4104.8775    302.37968    1417.2483 
   28780    4104.3323    304.44553    913.72601 
   28790    4104.3845    298.50922   -2897.7354 
   28800    4103.7028    304.10982   -1258.0885 
   28810    4102.4189    304.08625   -128.89715 
   28820    4100.8529    305.03241    -2084.515 
   28830    4099.6034    300.23182    -153.1639 
   28840    4099.7434    295.69484    1921.0131 
   28850    4099.4827    293.64108   -392.31923 
   28860    4099.0008    296.28671   -1034.6009 
   28870    4098.0634    292.40249    2159.6214 
   28880    4098.6872    299.79347    1150.9201 
   28890    4100.5079    300.28826   -3453.0244 
   28900    4102.0453    297.24464   -1199.5094 
   28910    4102.0303    295.80878    1811.7114 
   28920    4101.3971    304.54497   -1006.2676 
   28930    4102.1573    302.98813   -1255.0248 
   28940    4104.3623    306.23929    2250.0731 
   28950    4106.2112     294.5029    1292.1754 
   28960    4105.7396    299.31073    429.10528 
   28970    4105.9919    299.00828    1845.8635 
   28980    4107.8858    302.78746    1238.0883 
   28990    4111.7877    293.99426   -2338.6232 
   29000    4113.5548    296.39945   -818.42331 
   29010    4113.2125    297.88824    2265.3632 
   29020    4112.1643    306.38829   -2183.5451 
   29030    4112.9287    301.01323   -2185.5476 
   29040    4115.6096    299.21028    2690.5205 
   29050    4117.6368     297.2525    1882.5232 
   29060    4117.7667    297.16372   -1573.2196 
   29070    4116.0698    302.66953    1072.2043 
   29080    4114.9977     302.6668    2005.1378 
   29090    4114.5057    303.94322   -1288.2642 
   29100    4114.5959    299.18464   -703.09838 
   29110    4114.1973    300.54527    778.49972 
   29120    4113.0337    295.59566   -1472.9741 
   29130    4111.4304    300.66542   -2166.2162 
   29140    4111.7074    303.19413    2780.5437 
   29150    4112.4074    300.99826    1464.8998 
   29160    4112.4772    301.46888   -2870.2329 
   29170    4110.4589    304.90379    1524.4757 
   29180    4109.4807    303.29933    2580.8877 
   29190    4108.5559    302.89992   -1299.1355 
   29200    4108.9271    300.49542   -1893.4588 
   29210     4107.637    297.42385    282.24567 
   29220    4105.0697    300.82424    83.570592 
   29230    4103.8056    303.67079   -1199.6226 
   29240    4104.1959    295.46346    1003.0669 
   29250     4103.935    292.62145    643.39743 
   29260    4103.1364    295.12315   -1008.5931 
   29270    4102.4017    294.30574     1309.071 
   29280    4100.2686    303.68698    2918.2743 
   29290    4101.2829    296.97277   -1750.4276 
   29300    4101.7726    302.20156   -1335.2578 
   29310    4103.5727    299.19495    2627.7824 
   29320    4104.3731    298.10501    332.11482 
   29330    4103.6934    306.00058   -1881.1595 
   29340    4103.7903    302.94669   -778.39421 
   29350    4104.9329    304.23586    1718.7867 
   29360    4105.5046    306.84786   -605.47813 
   29370    4105.3823    297.79189   -1306.8689 
   29380    4104.7182    305.89394    1301.1954 
   29390    4104.8628    301.05299   -1781.3898 
   29400    4105.6043    297.23256   -1688.0008 
   29410    4105.3098    302.39093    2465.1466 
   29420    4105.6095    292.13428   -182.48224 
   29430    4104.3673    301.04232   -2537.2291 
   29440    4103.7742    303.59429    795.11492 
   29450    4104.1475    296.28465    2128.3205 
   29460    4103.5736    299.00624   -1484.5438 
   29470    4103.1004    303.80271   -2454.9355 
   29480    4103.0506    299.71153     934.9571 
   29490    4102.8401    298.18653   -120.19205 
   29500    4101.2245    305.46975   -2043.0079 
   29510    4100.0459    306.71263    338.46999 
   29520    4100.1192    302.62886   -93.287986 
   29530    4099.8156     302.2007   -2072.8028 
   29540    4098.6454      296.798    694.01641 
   29550    4097.7772    300.24977    1641.7971 
   29560    4096.8066    299.86507   -1941.8025 
   29570     4095.089    300.85468   -1431.3644 
   29580    4094.8615    299.00385    2230.3456 
   29590    4095.1368    304.64843    523.03331 
   29600    4094.7658    297.98049   -3223.1979 
   29610    4095.0489    299.31372    28.017519 
   29620    4096.8602    294.90109     1870.306 
   29630    4097.3089    301.79284   -1333.6265 
   29640     4097.357    291.53951   -756.72189 
   29650    4098.1291    295.10195     1421.857 
   29660      4099.68    294.02476   -865.55921 
   29670    4099.4911    299.11388   -655.56206 
   29680    4098.9221    298.33395    1810.5407 
   29690    4099.2228    303.99134   -212.93486 
   29700    4101.5477    297.10299   -3018.5166 
   29710    4103.4089    300.08598    762.71506 
   29720    4103.4327    302.71008      2171.27 
   29730    4101.1926    301.25382   -2582.9364 
   29740    4098.6391     311.7291   -1220.3056 
   29750    4101.5118    301.07402    2195.6966 
   29760    4102.2556    298.94416    79.486903 
   29770    4100.4935    298.90307   -1224.5262 
   29780     4098.469    299.07827    915.32136 
   29790    4096.5638    305.28213     785.5818 
   29800    4096.8933    305.05268   -1470.2729 
   29810    4098.6694    296.45509    1001.6312 
   29820    4097.5143    299.01228     1684.061 
   29830    4094.8866    297.49541   -1627.8109 
   29840    4092.6521    306.59217   -78.169132 
   29850    4092.8033    298.51917    2878.2568 
   29860    4093.5309    300.67976    521.57016 
   29870    4092.1833    299.95808   -2632.7866 
   29880    4088.9077    300.14045    1076.1781 
   29890    4085.4111    306.99886    2141.8374 
   29900    4083.9672    307.60323   -1597.8496 
   29910    4084.4352    307.91282   -884.22296 
   29920    4083.6192      301.603    1091.3548 
   29930    4079.3425    308.89832   -294.17903 
   29940    4076.0562    305.74385     -377.168 
   29950    4074.4329    302.58903    2334.4615 
   29960    4074.1747    303.74179    350.50535 
   29970    4073.3103    296.84096   -1300.7616 
   29980    4070.4475    298.03618     2029.135 
   29990    4067.4352    306.75194    1782.0435 
   30000    4066.2198    295.96881   -1946.1443 
   30010    4067.5475    301.11407   -1220.6087 
   30020    4067.6662     293.9564     2238.158 
   30030    4066.3718    296.80193   -133.12638 
   30040    4063.6614    303.76233   -2016.2084 
   30050      4063.41    300.69887    1711.4527 
   30060    4064.3503    300.23301    983.03424 
   30070    4065.0007    298.74353   -290.87234 
   30080    4064.1173    293.53003     1070.086 
   30090    4062.2696    298.06968    1272.7759 
   30100    4062.9235     298.3842   -1000.0666 
   30110    4064.4805    301.04602   -807.90586 
   30120    4064.7544    306.05433     1529.552 
   30130    4064.6398    295.03136    -953.4242 
   30140    4064.4575    303.85416   -1969.6171 
   30150     4064.266    302.98551    516.41939 
   30160    4065.6289     294.0716    1432.3826 
   30170    4065.4917    294.42861   -528.29947 
   30180     4064.451    303.14373   -56.687733 
   30190    4064.1452    297.97757    1130.3435 
   30200    4064.1677    302.48516   -81.008423 
   30210    4065.0856    294.14922   -501.93853 
   30220    4064.7803    297.02819   -530.94451 
   30230    4064.2176    303.45298   -153.98445 
   30240    4063.9504    296.22017   -1530.6174 
   30250    4063.0569    300.28103    547.45604 
   30260     4062.193    302.86345    1091.1895 
   30270    4062.4229    301.37544   -1772.9638 
   30280    4062.3842    302.26649    476.02094 
   30290     4062.075    296.80283    1275.5665 
   30300    4061.9079    295.70617   -541.27644 
   30310    4060.3059    303.13822   -1548.0138 
   30320    4059.3698    302.06384    68.324458 
   30330    4059.1943    305.63733    600.09595 
   30340      4060.08    299.49089   -1588.7126 
   30350    4060.8756    303.70941    511.35146 
   30360    4060.5877    303.93767    707.23636 
   30370    4060.0522    294.66982   -1357.7044 
   30380    4059.5111    302.65635    375.42532 
   30390    4060.9751    296.83274    1214.6609 
   30400    4061.6824    298.96069   -1492.4938 
   30410    4060.1035    296.44538   -1775.4541 
   30420    4058.1701    294.75527    884.41066 
   30430    4058.4235    303.96479   -341.80305 
   30440    4060.3875    294.56909   -1843.7113 
   30450    4060.9314    299.88142   -424.31503 
   30460    4060.0641     300.0165    637.15795 
   30470    4059.2254    303.48684   -1093.8913 
   30480    4060.0635    306.11671   -520.66395 
   30490     4062.572    299.94069    1649.5903 
   30500    4064.2569    296.02694   -1165.1665 
   30510    4063.3017    304.13635   -455.53253 
   30520     4062.599    300.94425    1036.3047 
   30530    4063.1052     308.2057   -414.21332 
   30540    4064.5627    299.27112   -2041.5673 
   30550    4063.6488    301.69741   -706.09365 
   30560    4062.4069    305.83552    1236.8602 
   30570    4061.7067    299.88018    -1687.525 
   30580    4061.4402    301.23301   -586.31123 
   30590    4062.5954     291.4957    1814.2253 
   30600    4062.7613    298.66856    678.50899 
   30610    4060.6515    301.02659    288.97749 
   30620    4059.1869    301.11179    982.57435 
   30630    4060.2185     298.8586    176.99864 
   30640    4061.4467    299.04526   -819.60023 
   30650    4062.4383    294.74134   -72.163292 
   30660    4060.3753      297.757     60.77588 
   30670    4057.7046    301.04145   -1193.8709 
   30680    4057.8373    305.62293     209.1278 
   30690     4059.302    302.37162    1914.7292 
   30700    4059.4846    295.79531    2083.5232 
   30710    4057.4636    302.35312   -302.34484 
   30720    4053.8055    306.54405    1302.8718 
   30730    4051.5467    307.10814    1813.9337 
   30740    4052.4011    304.24155   -526.62144 
   30750    4053.3914    298.32205   -848.98731 
   30760    4051.5886    299.49371   -866.89772 
   30770    4049.1266    299.15221   -1014.4034 
   30780    4046.6318    300.02769   -704.11938 
   30790    4046.3408    301.12533    1124.0082 
   30800    4046.8538    293.01673    147.34417 
   30810    4045.5427    303.07909   -60.243892 
   30820    4044.9884    299.05751    1379.4282 
   30830    4042.5176    299.77257    2401.8658 
   30840    4042.7994    297.96839   -263.05094 
   30850    4043.5478    301.26036   -1061.8457 
   30860    4044.3747    300.89297    1074.3097 
   30870    4043.3738    297.60462   -943.24294 
   30880    4042.7227    299.65816   -806.38589 
   30890    4043.0361    301.78462    221.92452 
   30900    4045.8541    293.19211    -593.6046 
   30910    4047.5733    293.87173    12.495524 
   30920    4047.7512    300.93798    536.12867 
   30930    4047.7793    300.67781    1422.8876 
   30940     4048.939    301.37618    -688.1612 
   30950    4051.8048    296.75037   -574.28223 
   30960    4053.5807    293.75027    1898.9739 
   30970    4054.6573    296.86803   -425.00254 
   30980    4056.8959    297.08459   -1809.7325 
   30990    4059.4864    298.55213     237.0463 
   31000     4062.083    298.16871   -373.75494 
   31010    4063.9892    298.54213   -1179.8916 
   31020    4065.7894     298.1671    356.22673 
   31030    4067.7777    299.20127    549.52833 
   31040    4069.3117    297.93063    392.15841 
   31050    4069.8411    300.56322    912.65854 
   31060    4071.2701    302.36511    945.80579 
   31070    4073.1819    296.76384   -796.70236 
   31080     4074.673    299.02504    -1974.773 
   31090    4076.9146    297.94071    742.97906 
   31100    4077.9359    298.15462   -3.7744968 
   31110    4078.0242    303.67443   -1976.1743 
   31120    4079.8063    307.16511    881.58663 
   31130    4082.7535    299.01905    1019.6653 
   31140    4083.9332    305.43976   -49.997515 
   31150    4085.1366    294.61596   -80.025389 
   31160    4084.2702    302.13022   -225.38759 
   31170    4083.1649    300.31109   -1631.7533 
   31180    4084.6864    298.85903   -1415.8199 
   31190    4086.5809     293.1107   -471.31265 
   31200    4087.7463    297.60317   -535.96684 
   31210    4087.6635    295.20647   -1442.8907 
   31220     4086.315    305.40402    1324.8297 
   31230    4088.4419    301.70743      1992.84 
   31240    4090.6176    297.73268   -973.36101 
   31250     4091.117    301.90208     206.8639 
   31260    4090.7398    295.62791    361.27897 
   31270    4089.7749    300.98287   -485.83667 
   31280    4090.1344    305.49213    -848.4395 
   31290    4092.9152    293.59044   -552.00118 
   31300    4094.1346    298.87973     552.7579 
   31310    4093.6888    293.30365   -836.81455 
   31320    4094.2259    296.07873     1600.305 
   31330    4096.2818    301.68429    1858.5121 
   31340    4098.0643    299.91275   -449.61964 
   31350    4099.6031     298.2059   -78.147677 
   31360    4101.3393    296.37846    1442.2753 
   31370    4101.9172    303.16103   -1046.5662 
   31380    4101.8184    300.77961   -2720.1432 
   31390    4102.5329    304.42777    218.71066 
   31400     4103.884    303.17347    -318.4467 
   31410    4104.1746    303.69426   -809.06582 
   31420     4103.222    301.09389   -316.48259 
   31430    4101.4161    300.32729    1678.8299 
   31440    4101.2207    296.61854    1020.7449 
   31450    4101.2426    305.23712    445.86041 
   31460    4101.8389    291.68609    1651.6579 
   31470    4099.6367    300.39263   -447.64394 
   31480     4097.737    300.30698   -1267.0352 
   31490     4097.297    305.73747    91.831213 
   31500    4096.9829    302.18745   -282.36743 
   31510    4095.5732    304.52129   -1424.6136 
   31520    4094.2641    306.20487   -176.90815 
   31530    4092.3553    304.95675    1430.1649 
   31540    4091.6122     302.6459    528.19641 
   31550    4089.5842    302.46477   -464.31384 
   31560    4088.5068    295.86793   -448.39253 
   31570    4087.5826     299.9007    589.91909 
   31580    4084.9112    303.25089   -1222.0092 
   31590    4082.5692    302.65543   -649.84267 
   31600    4081.3842    300.59568    455.14086 
   31610    4079.1766    301.18939   -1286.6353 
   31620    4077.5014    301.96022   -182.91246 
   31630    4075.8018    294.18405   -33.872228 
   31640    4075.1585    301.82816    226.08833 
   31650    4074.3862    308.63785   -1277.0765 
   31660     4073.039    299.41104   -233.48073 
   31670    4069.9683    304.35342    1453.2086 
   31680    4068.3486    301.33414   -392.06865 
   31690    4067.8708    299.32827   -524.70671 
   31700    4066.7595    303.46552    250.80111 
   31710    4065.4601    296.16365    95.070329 
   31720    4063.6195    300.82795   -993.96653 
   31730    4062.3917    296.72757    617.10368 
   31740    4062.2223    299.12689    172.12711 
   31750     4062.088    295.19083   -471.91253 
   31760    4061.9242    299.88601    1275.9062 
   31770    4062.0593    301.76381    771.24239 
   31780     4061.233    301.68211   -752.86395 
   31790    4061.1524    304.80541   -1002.1576 
   31800    4060.0911    304.59955    809.15164 
   31810    4059.5362    306.44516    100.01348 
   31820    4059.3431    308.47003   -1179.2102 
   31830    4057.9849    300.76538    377.73242 
   31840    4056.9467    297.78969    665.81072 
   31850     4055.868    295.01839   -158.87441 
   31860    4053.7652    301.33268   -343.50657 
   31870    4051.5006    304.40596   -341.81674 
   31880    4049.9201    299.80378   -1181.5612 
   31890    4048.1908    303.67078   -344.91623 
   31900    4047.2504    302.43516   -66.539532 
   31910    4046.6007    298.41941   -217.82029 
   31920    4046.0672    300.69268    575.75635 
   31930    4045.6197    302.79059    987.31918 
   31940     4044.518    301.31902    1398.5619 
   31950    4043.4432    299.10853   -136.21698 
   31960    4041.7681    300.42709    215.39172 
   31970    4041.5946    297.70762     639.2933 
   31980    4041.2959    298.38718    -816.5945 
   31990    4042.2927    295.30887    -578.6706 
   32000    4042.5693    294.12382   -138.91631 
   32010    4042.2938    299.77292    586.53547 
   32020    4043.9439    295.63335    888.18294 
   32030    4045.3238    299.16005    1213.6727 
   32040    4046.9861    301.52215    986.68113 
   32050    4047.8686    295.01434    526.60193 
   32060    4048.2722    300.85139    386.45455 
   32070     4047.867    303.50266   -521.65644 
   32080    4047.9756    304.72144   -1403.9092 
   32090    4049.2734    300.12252   -1525.9686 
   32100    4050.1969    307.79817   -441.77169 
   32110    4048.9286    301.72462   -1325.3084 
   32120    4046.7213    302.07654   -95.310367 
   32130    4046.4794    298.14419    1006.9083 
   32140    4046.6457    299.82706    327.65456 
   32150     4046.792    296.52246    588.53815 
   32160    4045.2137    299.16603    90.870643 
   32170    4042.8145    304.23355    140.72202 
   32180    4042.5933    300.89777   -1546.3775 
   32190    4043.7485    298.65195   -1107.3125 
   32200    4045.3438    294.11607   -1014.0841 
   32210     4045.589    294.35677   -879.01834 
   32220    4044.7595    299.42562    174.47311 
   32230    4044.7057    300.47241    51.047583 
   32240    4046.5716    297.01904    480.31587 
   32250    4049.1912    296.45039     158.2732 
   32260     4049.612    297.39662    251.14417 
   32270    4047.9814    305.21952   -410.00827 
   32280    4047.2036    306.62118   -935.67937 
   32290    4049.0147     298.7755   -560.73827 
   32300    4051.4752    298.18891   -891.35519 
   32310    4052.3162     294.1002   -138.78915 
   32320    4050.5376    300.40124   -460.42525 
   32330    4049.3366    302.46576    689.67758 
   32340    4051.3697    302.42073    1581.6125 
   32350    4054.3507    300.76608    541.26507 
   32360    4056.1588    288.66113    483.70442 
   32370    4055.8339    296.47496    468.75118 
   32380    4054.4049    301.74821   -740.09312 
   32390    4055.3944     301.1503   -2075.5772 
   32400    4057.0493     303.4106   -175.28128 
   32410    4058.0635    299.41317   -656.25808 
   32420    4056.4546    294.64555   -1136.3152 
   32430    4053.6542    308.43671    1201.7163 
   32440    4053.8117    302.40219    1053.0119 
   32450    4054.5846    299.94521    449.83824 
   32460    4055.1554    297.75262    407.49166 
   32470    4054.4712    298.51551    1878.4905 
   32480    4052.1369    304.57239   -637.40933 
   32490    4051.2092    299.10188   -1281.6946 
   32500    4051.5937    305.33776    1708.3168 
   32510    4053.0054    302.01545   -124.86731 
   32520    4052.8738    301.13383   -617.67424 
   32530    4051.2365    301.76979    1169.0257 
   32540    4048.8569    302.75852    1358.5736 
   32550    4047.7984    306.17902   -295.36818 
   32560    4047.1445    299.45171    821.71249 
   32570    4045.7055    302.39365    1672.0256 
   32580    4044.5219    291.74634   -1722.8408 
   32590    4041.8376    300.42013   -296.63339 
   32600    4039.4995    300.58782    1131.2865 
   32610    4039.5573    296.31663    576.67502 
   32620    4040.4834    296.15573   -1290.6542 
   32630    4040.8328     298.9038    944.86043 
   32640    4039.6454    301.15049    2014.9182 
   32650    4037.9782     300.8746   -545.92026 
   32660    4038.1251    298.85477    1112.6119 
   32670    4038.8812     304.1783     788.2277 
   32680    4039.9579    301.47681   -518.55213 
   32690    4038.9043    299.32816   -742.77389 
   32700    4038.4535     302.9215     942.0236 
   32710    4039.3163    301.58412   -223.94018 
   32720    4039.8963    303.17244   -2154.0059 
   32730    4040.1875    302.32699    987.84289 
   32740    4040.3319    297.42473    1507.1257 
   32750    4039.7751    298.15497   -397.06618 
   32760    4039.3567    296.74141    90.795839 
   32770     4038.523     299.3316     1506.285 
   32780    4038.3887    292.84814    119.77823 
   32790     4039.056    299.77136   -1144.8562 
   32800    4040.8319    295.26663   -273.20103 
   32810     4041.858     300.3006   -804.83043 
   32820    4043.7775    297.88263   -488.04063 
   32830    4045.5747    297.75333     223.9865 
   32840     4046.132    303.98747    1765.3185 
   32850    4047.2564    294.97761    226.93737 
   32860    4048.3434     302.4912    567.54336 
   32870    4049.1724    303.15418    1789.6415 
   32880    4051.0503    302.64729   -508.50961 
   32890     4052.221    299.72532   -2014.7151 
   32900    4052.6023    302.67568   -1958.5382 
   32910    4053.1756     296.9355   -1111.5236 
   32920    4053.8318    299.29849   -1838.8228 
   32930    4054.0891    303.37808   -1050.8591 
   32940    4054.7188    294.47632    778.70811 
   32950    4055.6516    296.30435    856.11563 
   32960     4055.894    298.26064    563.55546 
   32970    4055.6779    297.00818    493.67922 
   32980    4054.9723    299.53612    34.194962 
   32990    4055.0556    303.17452   -2477.9643 
   33000    4055.1966    301.92123   -2103.2423 
   33010     4055.734     301.6068   -484.48312 
   33020    4055.9487    293.86418   -2360.9819 
   33030    4055.2567     300.5023   -1283.4261 
   33040    4055.3915    306.95313    1462.8656 
   33050    4057.0215    292.29142    1319.1084 
   33060    4057.5908    303.67638    581.46371 
   33070    4058.2492    298.75134    902.75019 
   33080    4057.5003     302.6553    1129.9107 
   33090    4057.0788    304.54821    -1484.095 
   33100     4057.969    297.66044   -1556.9717 
   33110    4059.0438     300.8143   -1076.6031 
   33120     4059.245    302.95208   -2052.6573 
   33130    4058.2411    299.70354   -1102.2762 
   33140    4058.0029    304.05189    1306.4254 
   33150    4058.1093    299.57173    524.84576 
   33160    4058.1078    298.01307   -138.12863 
   33170    4057.9018    300.69808    1579.1746 
   33180    4057.3354    290.85245    1089.3428 
   33190    4056.1851    301.40574   -634.34773 
   33200    4054.9744    302.84789   -1159.3465 
   33210    4055.6407    304.14171    304.39116 
   33220    4057.0858     296.2841    -1173.579 
   33230    4056.6224    300.86363    -1108.478 
   33240    4055.8973    304.55589    323.73017 
   33250    4055.9723    301.35569    -155.8749 
   33260    4055.6116    303.82343   -55.750303 
   33270    4057.5946    296.98723    1333.6153 
   33280     4058.253    299.00035    1627.8374 
   33290    4058.6385    302.69869   -886.60396 
   33300    4058.6865    295.66927   -657.92591 
   33310     4058.569    304.13713    154.46444 
   33320    4058.5963    300.69003   -724.31766 
   33330    4057.4477    300.32479   -1404.2522 
   33340    4055.6431    302.91566   -397.34225 
   33350    4054.1978    301.57595     525.1719 
   33360    4053.3131    304.47853    -559.8044 
   33370    4052.0261    303.55336     704.2554 
   33380    4050.8584    296.58674    448.13558 
   33390     4048.817    302.22115   -423.31306 
   33400    4047.3161    301.58336    344.74997 
   33410    4045.8736    301.03074    361.33282 
   33420    4045.4834    300.68434   -585.95315 
   33430    4043.6294    300.32172   -1065.8211 
   33440    4042.6186    296.31219    265.40944 
   33450    4041.0459    297.53984    1009.2372 
   33460    4040.9112    301.32121    -238.8869 
   33470    4041.5994    301.16523   -138.79305 
   33480    4041.6723     301.2045    1263.5986 
   33490    4040.5723    305.45072    117.52031 
   33500     4039.172    302.26097    215.08471 
   33510    4040.2684    303.76479    733.76896 
   33520    4041.8865    295.61317   -48.805513 
   33530    4042.4087    298.71039   -99.319036 
   33540    4040.7737    296.07204    83.525991 
   33550    4040.0027    302.53196    868.87539 
   33560     4040.227    298.54959   -366.39921 
   33570    4041.0681    296.32004   -73.729173 
   33580    4041.0455    298.04677    1123.4566 
   33590     4039.928    301.12362     608.3027 
   33600    4039.6084    298.86071    -731.9963 
   33610    4040.2524    297.11121    392.39973 
   33620    4041.6694    296.40893   -67.839885 
   33630    4043.3669    298.33295   -357.22927 
   33640    4043.5066    300.38255    417.67504 
   33650    4043.2054    296.13745   -327.07594 
   33660    4044.1397    304.05347     328.4903 
   33670    4045.7502    301.20097    -21.20559 
   33680    4047.4763    307.50881    892.46887 
   33690    4047.2619    297.36886   -245.86477 
   33700    4045.8196    300.23437   -2170.4792 
   33710    4044.8157    306.62441   -454.57198 
   33720    4044.9239    305.11899   -135.32063 
   33730    4045.0697    299.95186   -1934.6029 
   33740    4042.6724    297.67473   -640.01351 
   33750      4039.37    300.74261    803.44882 
   33760    4037.9861    304.63885    535.72346 
   33770    4038.3949    297.67369    512.38005 
   33780    4038.7098    301.27588    332.71909 
   33790    4038.1258    299.85828    540.39151 
   33800    4035.8169    308.21858   -566.69462 
   33810    4035.0722    298.76786   -141.88167 
   33820     4035.251    299.33205    1113.9269 
   33830    4035.8753    295.89586   -1879.3335 
   33840    4035.0199    303.24304   -221.54799 
   33850    4032.8658    301.50307    1278.9306 
   33860    4031.6519    300.88022   -236.36657 
   33870    4030.0322    302.15976   -790.79191 
   33880    4028.3474    306.12082    538.96672 
   33890    4027.2922    301.16969    787.50951 
   33900    4025.5575    300.50678   -1225.7123 
   33910     4024.307    297.52887   -110.18083 
   33920    4023.5183    298.05774    658.76743 
   33930    4022.4378    300.47608   -772.30498 
   33940    4022.3298    295.95441   -944.19783 
   33950    4022.4897    294.25609    1587.5128 
   33960    4022.8252    298.01126    833.89261 
   33970    4024.2168    301.41044   -1096.3307 
   33980    4025.9711    297.55595     1956.389 
   33990    4027.1412    292.85407    651.76073 
   34000     4026.755    299.56878   -277.63872 
   34010    4027.5987    304.78971   -515.50512 
   34020     4029.687    302.76352    215.57833 
   34030    4030.5282    295.83128    632.37751 
   34040    4031.3605    303.79898   -1224.9526 
   34050    4030.2385    301.20121    960.76797 
   34060    4030.4583    301.52346    206.45595 
   34070    4031.5319    299.88809   -260.06013 
   34080    4032.9209    295.90441    368.20481 
   34090    4031.2718    300.32207    691.82571 
   34100     4029.067    299.32544   -414.02674 
   34110    4027.8519    304.40756   -300.53523 
   34120    4029.7781    295.65035    1116.2793 
   34130    4032.2301    304.32517    4.3496726 
   34140    4033.3602    296.24347   -738.78803 
   34150    4030.9751    299.65111   -51.612451 
   34160    4027.6158     300.5155    1380.9185 
   34170    4027.4705    302.69437   -721.63191 
   34180    4028.9559     302.5957   -1094.9902 
   34190    4029.5649    293.89103    726.22242 
   34200    4028.5046    295.72362     -327.468 
   34210    4026.9251    302.83294   -106.89238 
   34220    4027.8388     301.8565    791.74623 
   34230     4029.731    304.41278    1030.7391 
   34240    4031.0703    301.97871   -1218.9185 
   34250    4030.9172    299.30433   -324.14897 
   34260    4029.4622    302.86376    1538.5438 
   34270    4029.0481    299.64883     -1118.37 
   34280    4031.4722    296.05038   -1297.5447 
   34290    4032.8487    299.98694    1266.6868 
   34300    4032.5016    296.97433    760.65114 
   34310    4031.8512    303.96928   -1049.4888 
   34320    4031.8957    300.83798    1150.6515 
   34330    4033.4997    301.45994    1670.1448 
   34340    4035.9925    298.04387   -1070.3483 
   34350    4036.2268    301.81284   -299.54218 
   34360    4035.1979     299.7289    740.25569 
   34370    4033.0385     303.7116   -864.41006 
   34380    4033.7799    301.66221   -711.57575 
   34390    4035.7521    300.71896    1547.7184 
   34400    4036.5827    297.56896    691.31956 
   34410    4036.7907    296.29662   -763.33747 
   34420    4035.1436    303.52732    844.78583 
   34430    4035.2224    298.51379    1447.7697 
   34440    4036.4601    298.01117   -742.61749 
   34450    4037.9465    298.98661   -110.45176 
   34460    4037.8479    295.86111    454.10096 
   34470    4036.5126    304.10232   -381.51408 
   34480     4035.901    307.83777   -923.30679 
   34490    4036.8261    301.97439     738.2286 
   34500    4037.2751    294.31966    836.66412 
   34510    4036.8173    297.52052   -960.29153 
   34520     4036.962    293.17533    457.47298 
   34530    4035.5111    299.86181    389.17313 
   34540    4036.2244    302.30902   -856.54013 
   34550    4037.5107    300.78613   -1779.7248 
   34560    4038.2589    303.08193   -370.03277 
   34570    4036.3675    299.61087   -102.30076 
   34580    4034.0335    302.87035   -1047.0122 
   34590    4032.4614    303.23207    166.88209 
   34600    4032.9225    303.21968    847.73962 
   34610    4031.5349    297.61596   -673.98023 
   34620    4029.2773    305.73863    -417.4171 
   34630    4027.5964    293.97224    33.262534 
   34640    4025.7726    300.94874   -1549.7585 
   34650    4025.4395    303.30675   -1009.8984 
   34660    4024.2862    293.26963     519.5555 
   34670    4020.9004    303.17422    257.51104 
   34680    4018.9819    299.35153    -212.0897 
   34690    4018.4442    302.10381     573.8912 
   34700    4018.8914    304.15673    1472.1905 
   34710    4021.1186     289.8478   -734.23773 
   34720    4021.5873     298.0938   -949.77516 
   34730    4021.0592    301.38191     -117.443 
   34740     4019.947    296.72843   -1459.3907 
   34750    4020.5647    308.03832   -904.10457 
   34760    4022.4278    299.15984   -91.812558 
   34770    4022.5161    302.30166    122.10933 
   34780    4020.4283    302.38018    44.285248 
   34790    4019.1954    299.88053    603.48548 
   34800    4019.7168    306.53929    1274.8692 
   34810    4022.1564    296.22274    30.784298 
   34820    4022.6249      299.452   -157.23389 
   34830    4021.3378     295.9937    365.25258 
   34840    4019.3653    302.77966   -197.48473 
   34850    4020.3079    302.58809    -637.1223 
   34860    4023.0455     300.2648   -827.51913 
   34870    4024.6581    295.98521    -291.0131 
   34880    4023.7589    293.17374     87.22362 
   34890    4021.8946     301.7369     778.4487 
   34900    4022.7878     297.4228    1059.1639 
   34910    4025.6247    297.04275    427.07541 
   34920    4027.8842    296.02498   -165.06428 
   34930    4028.2026    298.04096   -81.640262 
   34940    4028.0527    304.04539   -375.85707 
   34950    4029.5471    297.69174   -1598.9511 
   34960    4031.9976    305.96678   -853.94498 
   34970    4034.7836    292.72276    514.48705 
   34980    4034.6857    300.39402    921.59896 
   34990    4033.2858    301.88852    1037.4386 
   35000    4033.5651    301.41179    1276.4141 
   35010    4036.8582    299.10876    1515.8085 
   35020    4039.4517    292.78166     197.3805 
   35030    4038.8851    297.51171    -530.3671 
   35040    4038.5829    302.00622   -319.95455 
   35050    4037.9038    299.36566   -1357.8569 
   35060     4038.996    306.60636   -1027.7046 
   35070    4039.9637    298.70576   -203.89046 
   35080    4039.0248    300.19858   -413.68836 
   35090    4038.0144     300.4397   -85.239551 
   35100    4037.2648    302.52565    798.36619 
   35110    4036.1796     307.2225       1086.6 
   35120    4035.9563    299.86914    84.026636 
   35130    4035.3075      306.474   -691.80161 
   35140    4034.0676    301.06652   -594.48731 
   35150    4031.9916    299.25243   -1153.7269 
   35160    4028.5346    303.84999   -1790.0281 
   35170    4028.7436    297.92063    -782.8045 
   35180    4028.4613    297.86481   -843.55999 
   35190    4026.6114    298.57135   -242.50648 
   35200    4024.4158    297.85097     366.1061 
   35210    4021.8473    301.52443    797.62043 
   35220    4020.5559    304.84053    1033.5905 
   35230    4020.9876     295.2054   -871.63897 
   35240    4019.9135     297.7208   -1.4596843 
   35250    4017.6244    303.15193   -339.62979 
   35260    4015.4899    302.42621   -1773.2373 
   35270     4015.027    308.39414   -310.82341 
   35280    4016.8169    300.74876    52.529318 
   35290    4017.7437    299.79875    724.04324 
   35300    4015.9359    299.09976    978.58366 
   35310    4013.4405    300.38246    1094.3033 
   35320    4013.1772    300.91063    1106.5092 
   35330    4013.8973    298.01172    562.73845 
   35340    4014.5799    301.47425   -451.97343 
   35350    4013.5287    298.43645   -45.970517 
   35360    4012.0768    299.38517   -595.15865 
   35370    4011.5544    303.26549   -252.75374 
   35380    4012.4665    300.50988    692.69983 
   35390    4013.7664      296.977   -179.61406 
   35400    4013.7793    294.35578    860.18469 
   35410    4012.6294    299.59458    799.24633 
   35420    4012.0185    296.89302    765.55972 
   35430    4012.4923     301.8881    1320.8062 
   35440    4012.2149    302.54911    69.842787 
   35450    4012.4236    302.55378   -120.65917 
   35460     4011.595    301.99032    186.62814 
   35470     4009.775    304.36866   -538.73662 
   35480    4009.4472    302.58878   -659.94054 
   35490    4009.3784    303.47382   -420.61915 
   35500    4009.0834    299.29726   -24.237748 
   35510    4007.8552    298.45865    1102.6691 
   35520     4004.723    303.41757    279.91076 
   35530    4001.5473    305.49264   -94.499455 
   35540    4000.5083    298.61245    1191.3646 
   35550    4000.4963    301.40054    1.7284805 
   35560    3999.2123    299.08482   -840.67723 
   35570    3996.9917    300.54272   -1047.6118 
   35580    3995.6156    296.78672   -1292.6453 
   35590    3994.9747    296.32583    489.70179 
   35600    3994.0271    292.95294   -593.91938 
   35610    3991.8828    298.75725    611.64057 
   35620    3990.3009      297.511    437.35397 
   35630    3989.4404    299.89484    51.446765 
   35640    3989.3352    297.39009    1987.1713 
   35650    3989.7863    298.56366   -280.20053 
   35660    3989.8229    294.81327    -1684.836 
   35670     3989.902    299.88416    10.263106 
   35680    3991.2283    295.43246    1119.2367 
   35690    3992.5146    300.84951   -250.00566 
   35700    3994.8973    296.99059   -147.17572 
   35710    3997.0036    296.14209    1351.8687 
   35720    3998.2324    299.06383    1295.7156 
   35730    4000.4731    294.02051    909.81699 
   35740    4002.3536    304.54945    817.65474 
   35750    4004.3338    298.33032    152.95518 
   35760    4006.7404    300.00144   -794.70012 
   35770      4009.79    296.83663    683.99918 
   35780    4012.3816     292.4456    968.30952 
   35790    4014.6256    298.91434   -1666.2357 
   35800    4016.9389    298.20443    82.273625 
   35810    4017.1479    301.83583    1215.8331 
   35820    4018.5514    303.84625    733.91227 
   35830    4021.3845    296.18542   -136.15634 
   35840    4023.3609    298.41471   -581.74085 
   35850    4024.3556    294.26239    1218.4719 
   35860    4024.4586    297.14787   -340.74137 
   35870    4025.5122    307.03923   -501.13152 
   35880    4027.1529    298.22901    55.006866 
   35890    4028.6667    303.74045    -669.4045 
   35900    4030.5141    303.89697    289.98859 
   35910    4031.1292    302.38604    1322.0202 
   35920    4030.5655    307.37852    -168.7948 
   35930    4030.8219    302.42323   -747.54444 
   35940    4030.8377    300.97587    838.31913 
   35950    4030.8815    299.73835    381.47586 
   35960    4030.5733    298.11034   -1352.5577 
   35970    4030.2184    296.32324   -2181.6894 
   35980    4029.8102    300.83921    345.16427 
   35990    4030.2003    293.23801    289.72414 
   36000    4030.0957    299.73904    -1067.324 
   36010    4030.3035    300.88936    380.37854 
   36020    4030.2384    298.50391   -1022.8875 
   36030    4029.9676    305.22383   -616.75353 
   36040    4030.0967    299.56721    383.98549 
   36050     4029.368    304.09569   -1342.7052 
   36060    4029.5128    298.82134   -2447.1499 
   36070    4028.6308    303.19829   -1531.2566 
   36080     4028.744    299.20408    337.65645 
   36090    4029.4001    294.95507   -724.63852 
   36100    4029.1474    295.44176   -1660.5694 
   36110    4028.6879    297.86632    9.1163408 
   36120    4028.9761    293.46058    688.85236 
   36130    4030.2784    297.59484      170.776 
   36140     4031.125     295.1197    25.043101 
   36150    4031.5521    297.90069   -140.70164 
   36160    4033.6608    293.15512   -1348.9985 
   36170    4035.6744    298.78346    268.08729 
   36180     4036.913    301.05418   -237.28934 
   36190    4036.6515    299.64101   -2305.7631 
   36200     4036.685    302.53643   -924.72411 
   36210    4037.2793    302.09939    580.48757 
   36220    4038.7779    299.34298    1180.4066 
   36230    4039.1369    301.51256   -744.22274 
   36240    4038.0794    303.53689   -37.714357 
   36250     4037.219     299.1225    1074.4851 
   36260    4036.3616     305.3669    608.76729 
   36270    4037.1993    301.76527   -612.59778 
   36280    4038.5749    302.33748    -1107.231 
   36290    4039.7134    293.68173   -1082.8397 
   36300     4037.085    298.93093   -3.5446373 
   36310    4033.4962    306.30659    524.99772 
   36320    4032.1646    306.02141   -1083.5285 
   36330    4032.4421    301.83949    128.38714 
   36340    4032.7079    303.96147    1890.4787 
   36350     4032.483    295.66666    2334.6368 
   36360    4029.6934    299.80638    1200.3711 
   36370    4028.4161    301.31747   -406.13958 
   36380    4029.6209     299.5582    1781.0465 
   36390    4031.8286    302.04184    1133.9975 
   36400    4032.1413    293.67464   -998.06576 
   36410    4030.2598    302.45813   -737.73514 
   36420    4028.5363    307.71646   -613.31097 
   36430    4028.6519    298.92904    63.106834 
   36440    4029.1188    306.48344    674.36326 
   36450    4028.6918    303.59082    340.80409 
   36460    4025.9485    303.58817   -234.41832 
   36470     4021.509    306.84283    494.03331 
   36480    4019.7248    303.18287    3002.0843 
   36490    4020.2759    297.95267    1378.2245 
   36500    4019.9704    302.31009   -1861.8693 
   36510    4018.7263    299.99061    47.897359 
   36520    4015.1412    305.53351    1309.2845 
   36530    4013.1876    301.72343   -1259.5711 
   36540    4013.6747    304.45026   -1312.0799 
   36550       4014.3     299.1853   -896.85209 
   36560    4012.3336    294.77573   -11.411217 
   36570    4010.1299    299.89947    1218.4446 
   36580    4008.8667    302.70029    1511.3857 
   36590    4009.3212    299.69273     135.7304 
   36600    4010.0636    293.76528   -1438.9862 
   36610    4008.2732    298.36966    1693.8808 
   36620    4006.1471    300.49946    426.15681 
   36630    4005.2598    300.81509   -2961.9417 
   36640    4006.6204    298.10906   -1355.5216 
   36650    4007.8423    296.90386    1200.3438 
   36660    4007.0049    298.34833      979.424 
   36670    4006.2657    300.86399   -86.040347 
   36680    4006.6063    302.21083     927.6804 
   36690    4008.8692    297.55212    1012.6995 
   36700    4009.5054    297.42784    428.38618 
   36710    4008.5427    302.02976    996.38161 
   36720    4008.5014    297.10863   -612.46999 
   36730    4009.2481    301.35209   -2955.9787 
   36740    4010.5591    299.50359   -238.80662 
   36750    4011.5275    298.35725    2022.0569 
   36760    4011.6077    303.59586   -1378.5013 
   36770    4011.8622    302.28968   -494.79722 
   36780    4011.9454    298.27909    2162.8786 
   36790    4012.3067    300.45453    2448.7593 
   36800    4013.4887    296.18892    326.58647 
   36810    4013.4208    304.66834   -687.81129 
   36820    4012.5681    299.87493    401.13763 
   36830    4011.5062     299.7936   -1050.8911 
   36840    4011.5848    301.80552    142.79688 
   36850    4012.7636    294.28386    217.32791 
   36860     4012.408    293.19892   -2113.6043 
   36870    4010.8963    303.88452   -9.8645468 
   36880    4011.1103    293.61177    2473.2671 
   36890    4011.5513    302.08373    1458.1932 
   36900    4013.0897    299.91693   -1277.1341 
   36910    4013.6553     301.1309    579.18556 
   36920    4013.6498    300.66408    1470.4146 
   36930    4014.0324    300.46823   -576.00704 
   36940    4015.8719    301.84513   -1920.2133 
   36950    4017.2428    299.91552   -2020.2409 
   36960    4016.4135    301.10582   -1021.9315 
   36970    4015.9848    304.62967   -557.46206 
   36980    4016.7314    297.25024    495.10916 
   36990    4018.0391    299.62174   -117.48899 
   37000    4018.1585    300.75662    -1177.524 
   37010    4019.0922    292.68676     1349.904 
   37020    4017.6842    303.04432    1368.9252 
   37030    4017.8731    299.12771   -1839.2328 
   37040    4018.7109    303.10608   -2610.3805 
   37050    4019.7725    297.40862   -706.49205 
   37060    4020.1322    299.18158    491.60146 
   37070    4019.2816    306.68887   -841.92631 
   37080    4019.4863    302.21233   -449.02127 
   37090    4020.1052    296.41993    394.31386 
   37100    4021.6394    300.33138    1212.7996 
   37110     4022.514    296.05611    1728.9715 
   37120    4021.6286    300.16527    154.94681 
   37130    4020.7475    305.88178   -2122.9308 
   37140    4021.1819    299.86998   -1951.3106 
   37150    4021.5004    298.53684    30.915324 
   37160    4020.8319    306.29248   -1010.7356 
   37170    4019.4614    300.71784   -1802.3739 
   37180    4017.2496    301.63523   -13.982623 
   37190    4017.2478    300.60384    3062.6534 
   37200    4016.2818    300.31655    1773.8538 
   37210    4016.5834    294.33931   -382.58008 
   37220    4016.0313    293.51612     987.6499 
   37230    4015.0418      298.441   -277.62669 
   37240    4014.3388     301.3822   -206.85665 
   37250    4014.9844    299.87065   -540.13967 
   37260    4015.6095    300.85721   -1386.1636 
   37270    4015.6094    296.10283   -1500.9821 
   37280    4015.0842    297.13438    850.76574 
   37290    4013.8838    303.17745    2496.8643 
   37300    4012.4594    300.23969   -1049.9805 
   37310     4011.788    302.29955    -281.9724 
   37320    4011.7394     300.5157    2380.0498 
   37330    4011.2179    299.85341     1496.402 
   37340    4011.4279     296.3956   -1908.5532 
   37350    4011.1657    306.49479   -701.57197 
   37360    4010.5842    305.53875   -184.42939 
   37370    4010.3522    300.74589   -756.85047 
   37380    4010.5917    301.88241    1856.2026 
   37390    4010.7656    298.69471    593.85893 
   37400    4010.2298    301.27264    -424.0389 
   37410    4009.7311    299.23118    758.98168 
   37420    4008.0523     302.0452    2068.7058 
   37430    4005.6994    301.58154   -985.76355 
   37440    4005.7488    300.61556   -3668.6314 
   37450    4004.9781    301.19603   -241.66857 
   37460    4003.8287    301.54361    393.39658 
   37470    4002.7187     298.7331   -1276.1736 
   37480    4000.7374     305.5894   -788.10085 
   37490    3998.7648    300.73537    836.46955 
   37500     3996.041    302.59063    1215.3719 
   37510     3993.738    305.33033    993.28798 
   37520    3991.7557    301.69412    1326.2707 
   37530    3989.3742     306.6467   -1303.0999 
   37540    3988.0168    302.64954   -1882.1875 
   37550    3986.7714    292.37336    979.83686 
   37560    3984.9178    306.14483    293.09994 
   37570    3984.4562    296.31525   -2735.3896 
   37580    3983.2779    297.55412   -445.39338 
   37590    3983.6526    306.14908    3452.9232 
   37600    3984.9012    293.96311    842.90829 
   37610    3984.3113    301.86091   -197.86173 
   37620    3982.7982    307.92085    1106.1718 
   37630     3981.258    301.01812    713.73816 
   37640    3980.0414    307.03251   -204.55844 
   37650    3980.4931    297.90187    128.88633 
   37660    3979.7727     296.5068   -381.40688 
   37670    3978.4027    299.11254   -2131.1681 
   37680    3978.1904    292.22065    1648.7765 
   37690    3976.6963    300.95819    2579.0183 
   37700    3976.7911    298.04898   -569.73904 
   37710    3977.5139    299.14558   -618.61001 
   37720    3976.6439    302.99222    2192.8645 
   37730    3975.2489    299.65354      1792.83 
   37740      3974.43    302.20895   -1266.4269 
   37750    3975.2667    299.92177   -821.08171 
   37760     3975.648    296.12725    42.961641 
   37770    3977.0359    298.01774   -20.032798 
   37780    3977.4915    299.49452    -4.272135 
   37790    3976.8793     302.3311    280.13831 
   37800    3975.6382    301.46243   -618.15052 
   37810    3975.7537    305.00701   -235.81394 
   37820    3975.8371    298.21905    1836.1831 
   37830    3974.2333    300.35232   -448.23724 
   37840    3972.4181    300.54157   -2566.7631 
   37850    3971.4274    296.10609   -1346.6069 
   37860    3970.5368    299.22717    906.96794 
   37870    3971.1112    302.08277   -12.592299 
   37880    3972.3872    289.01357   -1964.3354 
   37890    3971.2581    302.01479    1129.0864 
   37900    3969.5573    303.25917    1420.4506 
   37910     3969.722    301.05005    476.58359 
   37920    3972.5113    300.41385    840.74841 
   37930    3975.4081     292.9746   -548.28849 
   37940    3976.1705    298.21631   -1894.4113 
   37950    3975.3039    299.29642      63.5849 
   37960    3975.4863    298.92435     777.8336 
   37970    3977.7459    300.32927   -2097.1952 
   37980    3982.3312    292.83843   -1679.9137 
   37990     3984.455    297.00825    2118.8147 
   38000    3984.9211    294.16406    1796.5397 
   38010    3984.6638    304.15894   -1324.5489 
   38020    3985.2834    310.05272    113.79407 
   38030    3987.3738    303.37548    1560.6198 
   38040    3989.5787    298.97812   -904.38721 
   38050    3990.0142    296.37648   -691.25535 
   38060    3988.5914    302.45689   -314.84217 
   38070    3989.1886     299.0004   -848.55105 
   38080    3990.8938    297.32714    390.80363 
   38090    3992.4035    298.89281    1586.2423 
   38100    3993.1894    295.53633     489.4368 
   38110    3992.3588     304.5957   -599.41941 
   38120    3993.8245    299.75504    1457.0761 
   38130    3997.2553     298.5387    2097.8627 
   38140    3999.7364    300.29724   -1056.3496 
   38150    4001.1776    293.22331   -2264.0813 
   38160    3999.8065    301.13155    593.73359 
   38170    4001.3062    297.77009  -0.54843421 
   38180    4003.5767    302.84484   -1425.9525 
   38190    4005.6899    303.41156   -145.75761 
   38200    4005.7728    299.22818   -338.85511 
   38210    4004.5014    303.86863    728.65371 
   38220    4005.5346    297.86748    1649.3912 
   38230    4007.7306    297.93464    806.33239 
   38240    4010.1619    296.54956    -1244.717 
   38250    4011.6177    291.90156   -1099.5546 
   38260    4011.2072    302.80333    1584.1949 
   38270    4010.9282    299.26686   -795.18356 
   38280    4011.4843    301.46206    -2393.734 
   38290    4013.2724    298.54869   -653.67835 
   38300    4012.3594    303.63511    575.99363 
   38310    4009.3357    304.42273     -97.7295 
   38320    4006.3811     305.5962    271.96979 
   38330     4005.099    304.34527    53.441458 
   38340    4004.9466    300.64231   -483.85788 
   38350    4003.3345    299.21537    433.65656 
   38360    4001.0979     303.0558    878.02515 
   38370    3999.3217    303.03793   -1647.8935 
   38380    3997.6908    304.73928   -2631.0932 
   38390    3996.7557     300.8887    646.79883 
   38400    3995.2044    300.70315    1226.9373 
   38410    3993.2909    304.23926   -1861.4163 
   38420    3991.3323    295.62186   -619.65604 
   38430    3991.3532    302.44271     1714.606 
   38440    3991.6324    292.76337    440.84482 
   38450    3990.3197    295.06727    -258.4332 
   38460    3989.2725     298.6648   -114.65759 
   38470    3989.0295    301.46977   -443.54371 
   38480    3990.1176    297.47743   -1010.1161 
   38490    3991.6507    302.05475    1152.9363 
   38500    3991.5889    299.29787   -137.09181 
   38510    3990.2695    302.33229   -2354.8709 
   38520    3990.6437    299.28183    566.32838 
   38530    3993.1017     298.4018    2189.8495 
   38540    3994.6784    297.62298    -838.2868 
   38550    3994.1641    299.48096   -1410.3556 
   38560    3993.4653     300.1292    1557.2056 
   38570    3993.8769    300.65628    1251.8105 
   38580     3995.791    299.81423    22.771336 
   38590    3996.5369    298.98108    480.68012 
   38600    3996.8619    297.15579   -450.43644 
   38610    3995.4222    305.53938    -393.2345 
   38620    3993.5841    305.85051    273.30736 
   38630    3993.7324    305.51681    475.49409 
   38640    3994.4839    300.56388   -1740.8025 
   38650    3994.7882     299.1468   -880.88713 
   38660    3992.9297    304.41144    3115.0541 
   38670    3990.9692    300.48606    1046.2613 
   38680    3990.9054    303.34882   -795.42004 
   38690    3991.9624    296.66854    2.2106997 
   38700    3991.6808    295.33867     965.3049 
   38710    3989.1487     297.8853   -232.21082 
   38720    3987.0973    299.53935   -2002.2632 
   38730     3985.994    297.91543   -1134.0584 
   38740    3986.8036    302.77908   -643.73036 
   38750    3986.7224    296.39882   -367.38835 
   38760    3984.7417    300.37989    1003.1356 
   38770    3983.0761    302.29668    927.62718 
   38780    3982.5055    305.16309   -550.49447 
   38790    3983.2618    301.26306    1297.8379 
   38800    3982.9188    298.26114    2205.0243 
   38810    3982.2751    293.33214   -1569.8082 
   38820    3981.4026    298.87577   -1884.0216 
   38830    3982.0483     298.6604   -141.24904 
   38840    3982.9938    295.76643    174.42054 
   38850    3983.3334    295.27805   -885.48721 
   38860    3983.8767    298.69432    81.607167 
   38870    3985.6998    297.96366    1693.8655 
   38880    3987.6138    293.57179    274.64275 
   38890    3988.0465    302.02611    1182.4739 
   38900    3987.7714    298.46277    1855.5792 
   38910    3986.9566    304.76472   -1488.9188 
   38920    3987.5792    300.69057   -1649.3141 
   38930    3988.8249    297.33386    1129.2533 
   38940    3989.1845    304.62222   -608.24117 
   38950    3987.7217     304.7349   -2025.8729 
   38960    3985.9082    300.89233    120.66067 
   38970    3985.7167    299.46368    2085.2353 
   38980     3987.446    292.86783    1155.6493 
   38990    3987.7419    301.09292    197.22028 
   39000    3986.8535    298.68814    1420.5513 
   39010    3985.9829    298.33826    72.650067 
   39020    3987.1912    295.75933   -1260.8806 
   39030    3989.1842    296.91949    14.462243 
   39040    3989.8252    298.29789   -743.99385 
   39050    3989.5061     297.3356   -1896.4757 
   39060    3989.8919    298.03546    733.23544 
   39070    3991.2389     307.2764    2235.4639 
   39080    3992.7125    299.93668    233.59916 
   39090    3993.7641    297.39337   -312.68802 
   39100    3993.1741    302.67924    1386.9393 
   39110    3992.7852    302.96909    1155.1378 
   39120    3993.2791     304.1425   -1565.3544 
   39130    3994.8278     298.7591   -589.25274 
   39140    3995.6264    298.20388    19.402645 
   39150     3994.238    302.99904    -1149.855 
   39160    3993.5358    299.34927    166.93951 
   39170    3994.6765    299.95467    898.42452 
   39180    3995.5559     296.8531   -170.20628 
   39190     3995.736    298.76603    181.06468 
   39200    3995.5571    300.16541    1968.9584 
   39210    3994.8614    298.41477     344.9813 
   39220    3996.6202    297.77807   -2032.4546 
   39230    3998.1585    297.70398   -1118.1501 
   39240     3998.948    299.54535    842.16942 
   39250    3998.0178    298.54778   -987.86389 
   39260    3997.0687    302.97675    -1878.388 
   39270    3998.3141    303.44026    828.31344 
   39280       3998.9    300.37757    294.76801 
   39290     3998.149    300.81117   -302.21141 
   39300    3996.5665    304.01648    3.5822223 
   39310    3996.7649     302.8643   -1085.7074 
   39320    3996.3678    299.56399    -1155.149 
   39330    3996.0469    298.63549   -446.73029 
   39340    3994.6814    296.95504    1035.0426 
   39350    3992.2065    306.02956    -1072.055 
   39360    3991.4618    305.72703   -1148.5035 
   39370    3993.2297    302.94729    2555.0467 
   39380    3995.4634    292.55556    586.75519 
   39390    3994.8514    300.53457   -1269.2982 
   39400    3993.6498    299.03261   -123.29891 
   39410     3992.993    302.72494    612.81735 
   39420     3993.998    295.99357   -1464.7546 
   39430    3994.9422    299.65766   -1562.4926 
   39440    3993.8238    295.43464   -1408.2175 
   39450    3991.1581    295.13591   -1338.9975 
   39460    3989.2327    305.90044   -973.21375 
   39470    3990.8027    301.91818    1734.5397 
   39480    3991.3797    298.37426    1164.2484 
   39490    3989.6741     297.8934   -855.43538 
   39500    3986.3974    300.33378    1487.4073 
   39510    3985.5048    302.19353    1382.0896 
   39520    3986.6158    301.73005   -1039.7558 
   39530    3985.9354    299.12394   -2297.3031 
   39540    3984.9038    303.02139    164.82903 
   39550    3983.3779      302.129    582.25086 
   39560    3982.5989    305.27185   -49.104376 
   39570    3982.8695    300.85373    1454.3987 
   39580    3982.7927     302.2367    1114.9513 
   39590    3981.5449    304.92409   -235.80563 
   39600    3977.6374    302.77532     1030.934 
   39610    3974.3156    303.12835    1149.7566 
   39620    3972.3207    302.43216   -2429.4073 
   39630    3971.0786    299.46427   -2066.4368 
   39640    3969.1542    299.64252     962.0442 
   39650    3965.9644    293.21017    470.34636 
   39660    3963.0153    302.47501   -926.77104 
   39670    3962.5605     301.6714    1281.9477 
   39680    3963.5366    300.67036    2387.0701 
   39690     3962.575    301.91608    479.53528 
   39700    3959.3172    305.01087    509.52994 
   39710    3957.4035    301.29378    309.59182 
   39720    3956.5038    306.74059    -1348.991 
   39730    3956.6298    301.59482    -929.9262 
   39740    3955.0154    301.09627    707.75431 
   39750    3951.9162    298.42623   -1154.7217 
   39760     3949.394    306.41051   -1637.4409 
   39770    3948.8825    304.02835    2055.6473 
   39780    3948.2069    298.57915    2582.2078 
   39790    3948.0726    304.06067   -90.466166 
   39800    3947.2828    298.35429   -450.83741 
   39810    3944.8791    300.10887    1060.9614 
   39820    3943.5979    300.37817     -3.24015 
   39830    3943.9686    300.20537   -1305.4413 
   39840    3944.1538    299.65923   -587.11182 
   39850    3944.1159    296.50893   -1200.7174 
   39860    3942.0669    303.65004   -550.04869 
   39870    3941.7925    296.68909    1144.9533 
   39880    3940.7216     301.8093    1248.5361 
   39890    3940.6856    298.69941   -1235.9638 
   39900     3939.899    296.37225   -268.32284 
   39910    3938.1068    297.66084    1928.3198 
   39920    3936.4002    304.60715   -542.43849 
   39930    3936.2899    302.98919   -2020.7724 
   39940    3937.0274    295.62796   -418.51914 
   39950    3936.5677    303.24581    1261.3648 
   39960    3936.1038    300.77309   -491.93946 
   39970    3934.2057    300.53729    362.32946 
   39980    3934.1633    300.85078    925.32895 
   39990    3936.1316    290.99297   -35.487512 
   40000    3937.9922    289.74137    1442.6872 
   40010    3938.2833    298.61358    2162.7854 
   40020    3937.9404    295.66827   -473.93953 
   40030    3939.7193    302.50369   -1332.2383 
   40040    3943.2151    299.52916    2175.1943 
   40050    3947.3725    296.03544    442.77466 
   40060    3949.0369    300.19956    -2290.308 
   40070     3949.598    300.77289   -612.69701 
   40080    3950.1019     308.1385    1986.6262 
   40090    3952.0673    298.98166    91.890323 
   40100    3955.7805    292.00627   -1244.6359 
   40110    3957.5641    293.95695    1114.8604 
   40120    3956.9953    297.35302   -739.73999 
   40130    3957.0153    299.86511   -492.71169 
   40140    3957.9237     299.4982    1371.0565 
   40150    3960.2003    296.05965   -740.22425 
   40160    3962.1319    294.65803   -1702.7837 
   40170    3962.3269    301.86322     607.4984 
   40180    3960.6465    303.93519    1856.7472 
   40190    3960.8705    302.13239   -1356.7428 
   40200    3963.0336    293.84321   -1711.3919 
   40210    3963.8847    299.26037       462.56 
   40220    3961.9804    300.27001    328.48663 
   40230    3960.9337    302.44811   -1202.7267 
   40240    3960.5286    306.19047   -206.32986 
   40250    3962.7549    299.73191   -90.370245 
   40260    3964.4615    297.40669   -628.25688 
   40270    3963.9143    293.23512    1186.1827 
   40280    3962.6838     303.1803    967.72479 
   40290    3963.1478    305.08178   -1806.2232 
   40300    3964.8105    299.29596   -751.12004 
   40310    3965.6084    297.50972    1691.7167 
   40320    3964.2705    301.54808   -492.97548 
   40330    3963.5014    303.80331    -2558.516 
   40340    3963.9454    301.08527    -511.8154 
   40350    3966.0193    300.67583     1387.046 
   40360    3967.1781    292.02166   -347.08952 
   40370    3965.4381    301.21065   -274.75017 
   40380    3964.8009    302.80791    786.38405 
   40390     3965.739    299.45602   -530.99905 
   40400    3966.7308    297.22273    87.674381 
   40410    3967.0377    301.69459    1062.7881 
   40420    3966.4507    296.14618   -578.17438 
   40430    3964.5662    305.59429   -2012.5582 
   40440    3963.5354    304.38485    984.55799 
   40450    3963.0604    309.47687    1212.3373 
   40460     3963.441    299.06418   -1540.9596 
   40470    3962.4771     301.6321   -857.10032 
   40480    3962.0514    304.25155    1351.3854 
   40490    3962.2357    292.41424     1445.256 
   40500    3961.5278     301.0527    469.01658 
   40510     3961.598    300.60275     1322.239 
   40520    3961.6061    295.38512     855.1952 
   40530    3961.8848     303.3489    121.08725 
   40540    3962.5254    304.48367    816.00249 
   40550    3963.2024      296.749   -874.77415 
   40560     3963.927     296.4673   -2589.2761 
   40570    3964.6375    297.35466   -944.73054 
   40580    3965.2622    298.24465    1406.1703 
   40590    3965.4835    297.19347    188.03762 
   40600    3965.5971    303.35055   -789.71065 
   40610    3964.6117    305.45154     1229.792 
   40620    3964.1587    304.19066    1985.2426 
   40630    3964.1239    302.39333   -421.35271 
   40640    3963.5803    301.58132   -1123.2645 
   40650    3963.4334    297.53407   -710.91697 
   40660    3961.3626    299.63933   -1439.1484 
   40670    3959.5958    298.93617   -1131.7676 
   40680    3959.4096    294.87102    46.415763 
   40690    3960.1712    296.00198   -787.28055 
   40700    3959.3665    301.52153    -12.30007 
   40710    3957.2124    299.18377     1860.721 
   40720    3955.7202    297.39027    2131.5888 
   40730    3955.9008    299.51614   -507.56362 
   40740     3957.038    296.93723   -698.02104 
   40750    3958.4954    302.71939    1937.2244 
   40760    3959.0967    295.35111   -359.08332 
   40770    3959.4157    301.45462   -1093.5494 
   40780    3961.5853    302.40129    411.84601 
   40790    3963.7914    294.44343   -359.35337 
   40800    3965.0804    297.12248   -662.65264 
   40810    3964.2883    302.43657    483.73954 
   40820    3963.2108    300.89028   -346.06228 
   40830    3963.9467     299.8943   -1101.0779 
   40840    3965.5504    294.65192     761.7831 
   40850    3966.5835    299.72358     1076.631 
   40860    3965.0128    295.35095   -1774.6014 
   40870    3961.9123    306.29248   -864.93925 
   40880    3960.9829    305.40683    1103.7718 
   40890    3962.1391    296.05605    189.47963 
   40900    3962.3256    304.87564   -1562.2558 
   40910    3960.8753    300.89803    55.787328 
   40920    3959.1853    301.41723    682.46444 
   40930    3959.8252    302.56964    146.03402 
   40940    3962.2295    294.80801    1410.0453 
   40950    3964.0187     296.7754     360.8289 
   40960    3963.1397    300.45899   -684.24184 
   40970    3962.3605    301.93708   -342.87998 
   40980    3962.8314    296.33118    1046.6216 
   40990    3963.5838    297.74211   -296.44324 
   41000    3964.0527    300.45909   -1984.8426 
   41010    3963.5993    296.54555   -363.72826 
   41020    3963.4092    305.80589    1530.0798 
   41030    3964.3468    296.62625   -257.24326 
   41040    3965.7373    303.28574    -805.6536 
   41050    3966.5283    301.13789    1652.7923 
   41060    3965.7175    305.52196    1091.5402 
   41070    3965.6502      302.054    533.06827 
   41080     3965.641    305.51745    1646.6715 
   41090    3966.0126    303.69011   -938.46254 
   41100    3966.0141    298.68686   -1425.6063 
   41110    3965.7709    297.50756    9.0629348 
   41120    3964.2845    304.29828    447.34491 
   41130    3964.2919    298.28668   -2177.2449 
   41140    3963.8264    298.21366   -1138.6393 
   41150    3964.0817    298.54378     2954.162 
   41160    3964.6803    295.06103    111.77774 
   41170    3964.6899    299.15917    31.414897 
   41180    3964.9955    296.32808    1923.2253 
   41190    3965.7906    298.66696    474.41873 
   41200    3967.3705     296.2166   -661.82045 
   41210    3968.9255    298.57665   -640.76611 
   41220    3968.4293    298.33408   -1416.2298 
   41230    3967.0201    300.41199   -2937.9242 
   41240    3966.0361    302.83273   -919.82661 
   41250    3965.9607    302.88537    722.09796 
   41260    3966.5525    297.04272   -294.27091 
   41270    3964.8657     297.5016    -327.5839 
   41280    3961.5233    300.07873    2037.8706 
   41290    3959.3625    299.38324    2228.6087 
   41300    3958.3932    303.21131   -968.71673 
   41310    3959.4887    301.33403   -668.29505 
   41320    3959.7704    300.92678    26.860588 
   41330    3958.4122    302.86468   -92.838081 
   41340    3956.3987    299.82932   -1032.2553 
   41350    3954.9362    307.97869   -140.80371 
   41360    3955.6531    301.03457    113.19254 
   41370     3956.704    300.20373   -25.203028 
   41380    3955.3486    301.32714    1591.4915 
   41390    3952.5668    305.60808    949.84363 
   41400    3949.8562    304.42382   -964.93895 
   41410    3950.0844    296.20586   -609.41231 
   41420    3950.0126    295.40536    1202.0679 
   41430    3948.2281    294.20208   -688.72922 
   41440    3945.8213    302.07942   -2386.6672 
   41450    3945.1781    301.96711    1036.0799 
   41460    3946.6848    296.96437    1071.5594 
   41470    3947.3124    296.48041     286.4891 
   41480    3947.8932    290.56247    1006.6971 
   41490    3947.7637    295.73152    1312.3521 
   41500    3947.6676    297.29266    505.87129 
   41510    3950.0609    301.44258    255.72322 
   41520    3952.9919    308.68679    1830.4089 
   41530    3955.4063    295.80719   -1192.1211 
   41540    3955.9642    300.13986   -1088.5628 
   41550    3955.8285    306.77682    1520.5953 
   41560    3956.2781    298.71977    1135.1701 
   41570    3956.3958    304.16039    -814.6112 
   41580    3956.6924    298.28504   -91.411438 
   41590    3956.1015    296.90206    1408.3281 
   41600    3954.3416     303.8037    -28.35532 
   41610     3954.304    302.32746    11.454823 
   41620    3955.0947    303.08318    97.784142 
   41630    3955.7285    299.73574   -198.13534 
   41640    3956.5793    300.79662    198.85466 
   41650    3955.5475    301.20359    542.31061 
   41660    3955.6668    297.44458    104.99545 
   41670    3956.3689    304.51978   -898.92395 
   41680    3958.0462      298.855      56.8793 
   41690    3958.2751    298.16243    1709.2629 
   41700    3957.2683    295.62305    100.67777 
   41710    3955.7269    301.63683   -1045.1925 
   41720      3956.41    297.65666    1089.3821 
   41730    3958.4023    296.06243    1419.2678 
   41740    3959.6591    292.08093   -906.74744 
   41750    3960.8796    296.78804   -318.98261 
   41760    3962.2867    295.80598    134.70986 
   41770    3962.3336     301.3174   -265.54457 
   41780    3964.7242    296.75169   -594.68482 
   41790    3967.2971    297.66537    106.24971 
   41800    3968.0254    300.75078   -552.24285 
   41810    3969.2527    301.01203   -1263.6521 
   41820    3970.7656    306.16009    945.48812 
   41830    3972.8892    295.75511    68.042971 
   41840    3975.0576    298.95122   -1912.2793 
   41850      3976.36    296.95762   -31.475632 
   41860    3977.1019    298.30213    78.751456 
   41870    3977.9873    297.72093   -780.34262 
   41880    3978.7639     296.6177   -434.01411 
   41890     3980.169      299.814     106.5913 
   41900    3981.1259     296.0063   -797.27246 
   41910     3981.614    301.73183   -459.78053 
   41920    3981.8839    304.48329    305.29979 
   41930    3982.5936    301.33676   -1387.0168 
   41940      3983.25    306.83213   -1496.9284 
   41950     3984.122    300.12536    843.76598 
   41960    3984.2988    295.06715   -135.36049 
   41970    3983.3608    304.06314   -1127.0837 
   41980    3982.8042    296.32233    127.00335 
   41990    3983.4521    298.51198    1013.7809 
   42000    3984.3128    298.66365     231.1092 
   42010    3985.1397    293.92214   -396.71301 
   42020    3983.8903    302.08851   -143.79544 
   42030     3984.128    292.50072   -602.89298 
   42040    3985.3469    298.35809     455.3253 
   42050    3988.0638    298.02547    135.78896 
   42060    3990.2745    296.19594   -332.93131 
   42070    3992.5902    296.02507   -174.43233 
   42080    3994.3973    299.18969    1703.3493 
   42090    3997.3648    300.83283    1518.0164 
   42100    3999.8387     297.3846   -762.33125 
   42110    4001.9048    298.92615    124.84701 
   42120    4003.8178    295.65588    675.28188 
   42130    4005.1659    306.70106   -474.55469 
   42140    4006.7835    296.92543   -1082.7232 
   42150    4007.6924    299.40963   -507.59509 
   42160    4007.6473    300.63901    10.289237 
   42170    4008.0133    303.50518    355.77963 
   42180    4006.3563    302.04326    489.80584 
   42190    4005.3878    306.07053     483.9355 
   42200    4005.0357    301.05438   -1054.6905 
   42210    4003.8965    308.22584    138.40964 
   42220    4002.5903    306.37989    910.81217 
   42230    4000.6284    299.55142   -1579.2446 
   42240    3997.9011    303.09576   -1682.9361 
   42250    3994.6594    303.77208   -571.91862 
   42260    3992.2637    303.81924    187.57455 
   42270    3990.4435    296.45474   -391.41268 
   42280     3988.481    298.10191    322.86744 
   42290    3985.4167    297.16744    1648.4401 
   42300    3982.3229    302.64113    2156.2897 
   42310    3980.5333    303.76867    1169.1267 
   42320    3980.6799    298.73578    510.38804 
   42330    3980.2322    303.50801    -1134.087 
   42340    3979.3924    300.66825   -1778.3271 
   42350     3977.374    297.54333   -378.97774 
   42360    3976.6866    299.50065     -531.139 
   42370    3978.0242    297.34752   -580.11687 
   42380    3978.6676    295.86119    191.77178 
   42390    3977.7365    300.09031    2034.7563 
   42400    3975.1941    300.93968    2022.2892 
   42410    3973.8432    301.38831   -36.675641 
   42420    3974.8819    301.56674    -296.8122 
   42430    3975.7621    294.76188   -440.19592 
   42440    3973.9136    299.10109   -672.22822 
   42450     3970.856    301.06351   -541.88408 
   42460    3969.5743    301.43544     -725.234 
   42470    3970.3902    303.69567   -520.47999 
   42480     3972.747    297.03147    505.47256 
   42490    3971.8171     299.7126    1977.0713 
   42500    3970.2039    300.50567    486.56252 
   42510    3970.1432    301.88022    786.36644 
   42520    3972.1234    298.24754    1920.1541 
   42530     3975.315    295.77804    1245.2153 
   42540    3975.6499    296.41561   -716.35085 
   42550    3973.8054    297.60292   -1708.4611 
   42560    3971.8249    300.64687    141.20077 
   42570    3972.6693    300.65988   -643.50637 
   42580    3974.8269    296.33677   -933.92357 
   42590     3975.159     298.0116    223.35178 
   42600     3973.911    301.94671    378.42749 
   42610    3972.5467    307.86214    622.78459 
   42620    3974.1993    302.10161    838.50568 
   42630    3976.8907    297.51516    108.27942 
   42640    3979.2328    297.79289   -1311.9601 
   42650    3979.2616    297.21614   -530.58024 
   42660    3978.0473    293.66716    445.02248 
   42670    3977.6871    301.27056   -818.80682 
   42680    3979.8025    297.15429   -1459.0881 
   42690    3980.7683    296.74387   -75.009712 
   42700    3980.5345    302.35484    858.16381 
   42710    3980.7068    304.19157   -642.99329 
   42720    3981.3268    302.68705   -239.72479 
   42730    3981.6375    306.62129   -17.736036 
   42740    3982.7061    303.19484    -554.7896 
   42750    3983.6121    301.47311   -353.58753 
   42760    3982.9513    302.44236    365.90122 
   42770    3982.5212    297.62547    171.43085 
   42780    3982.4448    300.75932   -338.91946 
   42790     3984.393    293.72651    1238.1323 
   42800    3985.7536    296.16761    150.20488 
   42810    3985.8293    302.42045   -1539.0429 
   42820    3986.3609    296.11039   -897.86956 
   42830    3986.6113     300.4642    263.12974 
   42840    3988.0754    298.03287   -494.82253 
   42850    3989.1923     297.0637   -1426.4705 
   42860    3987.9201    299.48343    235.76416 
   42870    3987.0783    305.69315    537.19567 
   42880    3987.7498    302.16172   -811.52791 
   42890    3987.9299     300.2803   -303.69274 
   42900    3987.8715    300.27939     757.2159 
   42910    3987.7086    302.21796   -397.06039 
   42920    3986.7206    305.67684   -465.97123 
   42930    3986.0246     300.8707    775.16535 
   42940     3985.104    302.94391   -246.02927 
   42950     3984.231    301.98409   -1021.8435 
   42960    3982.1271    301.22187    74.556957 
   42970    3979.8862    302.91629    849.44786 
   42980    3977.7015    303.19719   -223.60195 
   42990    3974.9152    304.35673   -803.26383 
   43000    3973.3942    303.86635    1729.1566 
   43010    3972.3031    296.87763    360.98951 
   43020    3970.3906    296.40887   -1500.0762 
   43030    3968.5279    302.97828    145.68891 
   43040    3968.4927    300.06629    420.80568 
   43050    3967.5544    303.96738   -1088.0126 
   43060    3967.1258    299.80114   -237.72447 
   43070    3965.2384    305.06559    745.59644 
   43080    3963.4321    304.92247   -444.26923 
   43090     3961.764    301.67608   -740.15908 
   43100    3958.7194    301.48861    1112.1174 
   43110    3956.6387    306.04987    372.24091 
   43120    3953.0719    303.09432   -1844.9584 
   43130     3950.319    304.59926    730.71476 
   43140      3949.41    301.79972    1723.9484 
   43150    3949.2574    295.71023   -1516.2959 
   43160    3948.1581    301.26917   -506.40256 
   43170    3946.4143    297.51844    1530.9532 
   43180    3944.2095    298.52258   -264.79482 
   43190     3943.156    301.81092    -498.2918 
   43200    3944.4928    297.71833    1255.2188 
   43210    3944.9891    298.90576    288.39906 
   43220    3943.5727    298.38061   -1666.0656 
   43230    3941.5063    304.81575   -82.552604 
   43240    3940.4121    305.45192    867.05942 
   43250    3941.8745    299.37102   -2154.9432 
   43260    3941.2463    297.60158   -1151.5426 
   43270    3939.9941    299.14607    1349.2467 
   43280    3936.9325    296.49405   -613.41247 
   43290     3934.779    300.11743   -782.23326 
   43300    3935.6224    303.41182    1505.3098 
   43310    3938.2561    294.78496    1050.2399 
   43320    3938.3033    300.93194   -1361.7406 
   43330    3936.7882    300.69722    73.720938 
   43340    3936.3869    298.43802    424.66106 
   43350    3936.7495    302.08788   -1269.7683 
   43360    3938.6372    298.38012   -746.12705 
   43370    3938.9676    293.27764    1163.1265 
   43380    3937.3291    301.71456    158.70763 
   43390     3937.133    299.46975   -176.49273 
   43400    3938.8674    300.68377      2675.07 
   43410    3941.1445    299.09245     1842.868 
   43420    3942.2608    298.55628   -920.08427 
   43430    3941.4804    301.60566   -333.49901 
   43440    3941.3135    302.07019    789.25066 
   43450    3941.4708     301.7661   -866.60641 
   43460    3943.0219    299.60988   -1730.0357 
   43470    3944.5187    290.87533    481.12632 
   43480    3944.1027    297.26383    843.78145 
   43490    3943.8398     301.1079   -6.6378786 
   43500    3944.0999    304.64418    1198.4304 
   43510     3944.804    304.24962    1603.3219 
   43520     3945.814    305.62835   -185.83948 
   43530    3946.8406    299.06576    662.57041 
   43540    3947.0517    298.81531    1058.0803 
   43550    3946.2254    299.40889   -553.51605 
   43560    3946.6382     295.6053   -1301.2405 
   43570    3946.6363    298.05074    371.33079 
   43580    3947.3305    294.13184    958.85614 
   43590    3947.5649    297.02956   -592.87278 
   43600    3949.0102    294.42784    759.37999 
   43610    3950.1898    302.58844    2008.9715 
   43620    3951.6673    295.83765    1288.3418 
   43630    3951.8567    304.82607    843.20727 
   43640    3952.0046    296.46311    211.74477 
   43650    3952.8956     295.8579   -195.31753 
   43660    3954.7157    298.73748   -722.76706 
   43670    3955.7572     299.7904   -319.35407 
   43680     3956.141    302.88245   -379.82432 
   43690    3957.3563    301.75954    -675.2881 
   43700    3958.8056    295.50451    197.25442 
   43710    3958.9056    299.34816    2042.7173 
   43720    3959.1696    301.76667    1699.8473 
   43730    3959.7686    297.04208    72.601971 
   43740    3960.9803    299.69745    478.68397 
   43750    3961.8957     299.9185    656.07867 
   43760    3963.5963    294.08095   -1069.4144 
   43770    3964.3156    299.15041    -1457.508 
   43780    3965.2622    296.42407   -1328.2959 
   43790    3967.7348    301.97215    33.544421 
   43800    3969.7555    297.15155     36.19414 
   43810    3970.6151     299.4464    344.29964 
   43820     3971.683    301.24848     558.2266 
   43830    3972.8089     297.7379   -581.54324 
   43840    3973.2588    304.66456    327.62347 
   43850    3975.2412    298.98094   -81.689813 
   43860    3977.5244    289.27562   -1601.9117 
   43870     3976.813     307.3985   -1693.0795 
   43880    3975.7303    301.10346   -309.28322 
   43890    3976.6673    295.04367   -358.11821 
   43900    3977.7461    306.33158   -816.68846 
   43910    3979.6977    295.95406   -652.23629 
   43920    3980.2645    303.31222    1040.9777 
   43930    3980.5614    293.29387    1064.8066 
   43940    3980.0584    305.38479    -269.1747 
   43950    3982.4732    295.06581    213.76807 
   43960    3984.6297    295.22253     27.81457 
   43970    3986.1827    292.30555   -1035.4799 
   43980    3986.5895    299.50571   -567.37152 
   43990    3988.5806    295.31675   -319.45746 
   44000    3990.4623    298.74063    -526.9815 
   44010    3992.5329    301.49431    193.46731 
   44020    3995.8412    295.72342    1672.8337 
   44030    3997.0875    300.13219    516.73649 
   44040    3997.2668    309.51803    635.91001 
   44050    3998.6314    300.34345   -547.66714 
   44060    3999.4316    300.08522   -291.04835 
   44070    3999.5156    302.19579   -622.73066 
   44080    3999.2672    301.50869   -1104.4133 
   44090    3998.2757    303.74084   -236.97123 
   44100    3998.5033    296.21476    -398.1629 
   44110    3998.9362    299.95702    1565.8632 
   44120    3998.5011    295.23016    1118.4495 
   44130    3997.9261    301.39754    1082.3441 
   44140    3997.5161    299.66333    1100.2272 
   44150    3997.1612    301.94628    402.52674 
   44160     3998.032    296.96658    -473.3462 
   44170    3995.7618    302.15181   -1259.8637 
   44180    3993.9915    302.35982   -1717.5802 
   44190    3993.8603    300.83327   -1626.4731 
   44200    3993.4931    303.97067    340.76276 
   44210    3993.3246    306.97057    115.78366 
   44220    3992.2921    297.63286    510.93314 
   44230    3990.2889    303.39673    1068.9575 
   44240    3990.0999    300.94045    1367.4189 
   44250    3990.2615    296.42755    603.25158 
   44260     3989.328    299.24282   -1779.2492 
   44270    3987.5299    295.30479   -680.24643 
   44280    3985.6437     298.1831   -1164.3254 
   44290    3986.0666    301.07406   -1151.3861 
   44300    3986.5173    301.02925   -317.13678 
   44310    3987.1982    299.01714   -31.237746 
   44320    3988.4946    298.72689    894.65362 
   44330    3988.9102    299.33575    1159.5025 
   44340    3988.9989    302.99911      1050.14 
   44350    3989.4536    299.53351   -639.23591 
   44360    3990.4891    294.85463    -1252.501 
   44370    3990.8449    302.09427   -1269.3682 
   44380    3990.9287    294.74296   -1275.7993 
   44390    3990.3525    299.39188    -1586.299 
   44400    3989.0072    302.72217   -1162.9023 
   44410    3988.9411    298.39647    539.58999 
   44420    3988.3862    304.44299    1425.5731 
   44430     3987.578    300.05206    1754.8312 
   44440    3987.1981    302.36148    917.08757 
   44450    3985.3287    303.92598    612.68236 
   44460    3985.1353    302.19827   -59.598576 
   44470    3984.4742    301.09013   -1306.0819 
   44480    3983.1347     306.2934   -1859.5273 
   44490    3981.6973    301.19632   -2436.4648 
   44500    3979.6552    304.22911   -1323.9803 
   44510    3978.4624     299.4621   -114.43743 
   44520    3977.1528    296.15474   -123.42559 
   44530    3973.7484    303.82032    595.52383 
   44540    3970.9635    306.12982    965.44518 
   44550    3970.0977    298.41944    276.60639 
   44560    3968.0569    304.85592    315.56606 
   44570    3966.5725    300.53977   -1108.2868 
   44580    3963.0482    298.77897   -1322.8908 
   44590    3960.4794     306.2691   -875.72721 
   44600    3958.6957    302.60295   -410.00094 
   44610    3957.7583    300.84811    566.95912 
   44620    3957.0109    295.48602    697.88007 
   44630     3956.084    293.64899    669.55419 
   44640    3954.8881    300.72099    1704.3209 
   44650    3954.7263    299.21443    721.81318 
   44660    3955.6377    298.11914     115.9391 
   44670    3955.6888    298.40355    -219.8983 
   44680     3955.612     298.5032    167.36902 
   44690    3954.7721    303.90323    342.48962 
   44700    3953.7622    301.65037    219.70703 
   44710    3953.3188    304.12207    1249.9057 
   44720    3953.9199    298.50302    1035.3898 
   44730    3954.8184    305.65618    469.93372 
   44740    3954.2593    300.21803    1299.0727 
   44750    3952.1066    302.82414    1151.3789 
   44760    3948.7926    307.40294   -616.01142 
   44770    3947.0639    305.01242   -115.34448 
   44780    3947.5855    298.46101    56.777307 
   44790    3948.2444    292.57601   -976.42193 
   44800    3945.8879    303.92322   -685.08246 
   44810    3942.9351    306.62926    50.867508 
   44820     3940.492    300.74641     829.7624 
   44830    3940.7237    303.52435    875.63177 
   44840    3940.7853    300.60131     1414.013 
   44850    3939.6924    298.06829    1165.8751 
   44860     3937.434    302.42212    -421.7004 
   44870    3935.4712    296.72056   -438.61637 
   44880    3936.7267    301.32947    488.58808 
   44890    3937.6065    292.10547     -1330.53 
   44900    3936.8312    297.81689   -923.00375 
   44910    3936.2377    299.64399    1186.6491 
   44920    3935.5303     298.8611    1109.4633 
   44930    3935.7022    303.85089    748.99331 
   44940    3936.4375    297.78535      656.815 
   44950    3936.5327    294.98652    1297.4534 
   44960    3933.5831    302.82969    519.09485 
   44970    3931.9905     303.8233   -939.72252 
   44980    3932.1381    297.69478   -537.06004 
   44990    3933.2051    298.50032    -551.2486 
   45000    3933.7105    300.18471   -19.792607 
   45010    3932.4535    296.10456    256.60243 
   45020    3932.2399    298.84283    314.17132 
   45030      3933.19     294.5471     959.7446 
   45040    3934.4214    297.79705    864.85283 
   45050    3936.1705    292.88619    380.85677 
   45060    3936.7916    299.73747    80.659817 
   45070    3938.0907    297.27256    -50.39351 
   45080    3940.3335    300.79165   -297.13368 
   45090    3942.1206    298.18234   -358.50331 
   45100     3944.189    301.02078   -210.95097 
   45110    3945.1825    298.52515   -840.07628 
   45120     3946.499    302.44426   -458.90743 
   45130     3947.713    303.32682   -42.588658 
   45140    3948.3413    298.29651    313.93396 
   45150     3949.091    302.51375    -165.3261 
   45160     3949.801    295.77515   -520.31726 
   45170    3950.5055     296.6599    37.463993 
   45180    3949.9685    298.27912   -139.58079 
   45190     3949.864    298.87148    133.55493 
   45200    3950.5664    300.67252   -174.66761 
   45210    3951.3486    295.79088   -456.20222 
   45220    3951.9534    302.18764   -65.872978 
   45230    3952.9142     302.9561   -369.92157 
   45240     3954.068    296.15745   -254.27296 
   45250    3955.9552    302.92971   -827.74971 
   45260    3957.7092    297.43912   -354.83216 
   45270    3957.7253    300.65281    785.50034 
   45280    3957.2803    306.64718    82.788518 
   45290    3957.5195    298.26118   -655.78887 
   45300     3958.879    301.55619    234.13318 
   45310    3960.9289    291.86023     618.0232 
   45320    3962.5578    295.44945    151.23863 
   45330    3962.3641    296.74484   -288.91116 
   45340    3961.7093    294.47757   -330.04221 
   45350    3962.9603    301.77118    261.09197 
   45360    3965.1664    300.73985   -633.24961 
   45370      3967.86    298.89372   -653.91751 
   45380    3969.5509    298.30996   -641.49604 
   45390    3970.9847    302.43801   -289.11553 
   45400    3971.5501    306.53556    497.29018 
   45410    3972.2448     300.6294    624.78998 
   45420    3973.5349    303.10059    395.96378 
   45430    3975.6725    298.57363    -824.3816 
   45440    3975.6906    299.16892   -325.79421 
   45450    3974.8467    294.23333    722.86362 
   45460    3974.2283    300.20507   -1850.7484 
   45470    3974.7939    300.00606   -1864.3792 
   45480    3974.0825    300.75026   -347.67653 
   45490    3973.0073    302.37973    440.39289 
   45500    3971.5226    297.58283   -135.72319 
   45510    3969.8201    301.27036    17.438331 
   45520    3970.1676    300.77537    1137.7692 
   45530    3972.1722    293.88528    154.40759 
   45540    3972.1297    302.13937     649.1612 
   45550    3970.7705    297.14719    924.10901 
   45560    3970.3617    300.26873   -524.57729 
   45570    3972.0357    299.55537   -685.24748 
   45580    3974.3439    295.23308    482.90911 
   45590    3975.0676     299.3716    29.580468 
   45600    3974.1329    300.98399   -1355.0441 
   45610    3973.3737    300.03252   -432.72153 
   45620    3973.0648    301.99532    622.16127 
   45630    3974.4264    297.10592   -86.948011 
   45640    3974.0311     305.8482   -803.67351 
   45650    3972.9327    306.10406    103.23664 
   45660    3971.9786    300.58753    507.06624 
   45670     3970.664    303.75955   -236.12099 
   45680    3971.2523    296.98147    559.96066 
   45690     3971.938     297.5311   -1014.6669 
   45700    3971.3461    296.03017   -1152.3149 
   45710    3969.2725    298.85027    675.56404 
   45720    3968.7729    305.66883    157.83895 
   45730    3968.3283    301.95146   -961.80189 
   45740    3968.2207    295.05649   -423.76175 
   45750    3967.5687    301.29112    661.74193 
   45760     3965.487    296.07195    102.37857 
   45770    3962.6473    304.56413   -731.00151 
   45780    3961.5655    304.33023   -173.35314 
   45790    3962.5753    299.90221   -34.804672 
   45800     3963.764    302.42887    -128.2216 
   45810    3964.6254    296.17034    797.85926 
   45820    3963.1462    295.65352    74.091328 
   45830     3961.206    299.25389   -990.95838 
   45840    3961.7448    297.81177    809.69711 
   45850    3963.4428    301.40166    884.72559 
   45860    3963.9592    300.00088   -987.77688 
   45870    3963.6056    300.70767   -1093.2895 
   45880    3962.4793    300.06548     79.21047 
   45890    3961.5972    303.02853    723.38951 
   45900    3962.7341    300.36005   -271.65429 
   45910    3962.7447    301.40032    -78.36967 
   45920    3963.2676    300.30074   -210.31229 
   45930      3962.22    296.87278   -737.61345 
   45940    3962.1618    298.44518    725.66415 
   45950    3963.8778    297.25409   -159.90126 
   45960    3964.8782    296.72692   -2376.4651 
   45970    3964.4246    298.73646   -22.745114 
   45980     3963.997    302.65878    1214.3245 
   45990    3963.2418    306.95088   -602.23118 
   46000    3961.9769    306.20391   -1052.2823 
   46010    3961.9064    302.28939   -88.166348 
   46020    3960.9537    303.99019    879.41329 
   46030    3959.7388     303.0713   -392.19813 
   46040    3958.7747    302.38626   -567.23826 
   46050    3957.0704    303.75726    83.551917 
   46060    3956.4251    301.28262   -916.74609 
   46070     3955.716    302.20014    1130.4902 
   46080    3954.7727    300.92405     989.8857 
   46090    3952.2281    301.82253   -1850.9256 
   46100    3948.9929    302.24919   -737.08574 
   46110    3948.0698    302.68195    844.16588 
   46120     3946.532    299.19787   -637.98476 
   46130    3943.7284    304.67742   -1499.4277 
   46140    3941.1672    299.41956   -1240.3333 
   46150    3937.6694    306.72846    666.27572 
   46160    3936.6732    302.88435    -19.75338 
   46170    3933.8486    302.79082   -210.62627 
   46180    3930.6517    299.56103    1330.4341 
   46190     3928.882     303.5526    148.25599 
   46200    3927.9618    292.50192    1056.0513 
   46210    3926.9701    295.64199    2223.4037 
   46220    3925.9982    295.57863   -63.630079 
   46230    3925.0557    297.96863   -857.17238 
   46240    3925.1147    299.22934    372.02051 
   46250    3926.3875    295.56097    1476.0679 
   46260    3925.3989    294.24276   -704.49953 
   46270    3924.0947    305.45536   -727.19737 
   46280    3922.5815    299.62965    1501.6217 
   46290    3923.6706    303.00003    1648.6921 
   46300    3924.5957    300.19627    138.37903 
   46310    3925.9693    295.70501    326.93036 
   46320    3925.4253    299.60286    286.57761 
   46330    3925.6965    298.86183    -271.1218 
   46340    3927.0342     297.4121    1569.2479 
   46350    3928.3046    299.26519    942.97418 
   46360     3931.551     294.6075   -1155.8857 
   46370    3933.1012    295.85619    1043.9499 
   46380    3932.7219    297.70524    2620.6381 
   46390    3933.2788    300.33363    740.26876 
   46400    3935.2044    303.25303   -593.71699 
   46410    3937.9415    300.45439    258.24719 
   46420    3939.5288    292.18386    1074.6025 
   46430    3938.8726    301.77771   -550.14685 
   46440    3939.3977    301.79423   -734.94551 
   46450    3940.5643     302.8004   -768.53411 
   46460    3942.3095    300.45816   -893.64934 
   46470    3943.8602    298.33283    765.33829 
   46480    3943.4236    299.22834    1163.7267 
   46490    3942.1642    296.99007   -227.90306 
   46500    3942.5682    302.95194   -91.080584 
   46510    3942.9137    296.14584    1723.5393 
   46520    3941.2636    302.31641    950.50704 
   46530    3941.4282     298.5041   -1937.8074 
   46540    3941.4666    300.11696   -1430.5723 
   46550    3941.8365    302.07278    752.65024 
   46560     3942.873    301.47237   -107.08751 
   46570    3943.4482    298.52124   -988.60566 
   46580     3943.003    302.93555    396.72987 
   46590    3942.7664      297.192   -95.121767 
   46600    3944.6383    302.46588    705.93482 
   46610    3948.2354    294.70532    982.49545 
   46620    3951.9211    291.54081   -35.348013 
   46630    3953.8389    298.49855   -1690.3875 
   46640     3955.473    295.57548   -85.597105 
   46650    3956.9089    304.23685    1847.3063 
   46660    3958.9376     298.5974   -1363.0233 
   46670    3961.2503    299.23398   -1777.2177 
   46680    3963.0026    299.11404      1097.81 
   46690    3964.3055     297.9205    609.34389 
   46700    3966.4977    289.50565    -1327.661 
   46710    3968.3022    298.48869    452.58702 
   46720     3970.264      297.699   -17.555262 
   46730    3972.2554     299.0629   -795.23685 
   46740    3974.8402    298.21138    971.05249 
   46750     3976.514    296.18756    1195.2675 
   46760    3977.2205    300.76043   -727.91351 
   46770    3978.7192    301.29569   -355.00414 
   46780    3980.0942    298.83962    1816.6178 
   46790    3980.9987    300.27113    67.626992 
   46800    3982.2273    303.12396   -1873.9774 
   46810    3983.6097       302.43    698.38355 
   46820    3984.2499    302.79788    621.68062 
   46830    3985.2247    299.33586   -985.39868 
   46840     3985.402    305.08488    766.30444 
   46850    3985.8873    302.87258    449.45517 
   46860    3985.9163    296.86981   -1296.4957 
   46870     3985.676    302.21582   -351.75342 
   46880    3986.6635    289.77082    436.54718 
   46890    3986.4133    299.94926   -1036.7301 
   46900    3986.4192    295.28027   -1971.1692 
   46910    3985.6881    296.90352    345.78806 
   46920    3985.8104    305.06744     1739.177 
   46930    3987.0476    298.43833   -1081.1707 
   46940    3986.9667    300.13277   -1.2648118 
   46950    3985.4823    302.12838    1813.6907 
   46960    3984.9036    301.30041    76.585148 
   46970    3984.0306    308.49537   -246.24002 
   46980    3984.1574    299.62732    419.27766 
   46990     3984.499    301.26991   -570.85337 
   47000    3983.3786    303.73067   -2361.6964 
   47010    3981.9311     292.5957   -287.67316 
   47020    3981.5869    302.02849    1142.9936 
   47030    3982.1235    296.95206   -1571.7876 
   47040    3982.0297     298.1184   -330.38688 
   47050    3981.2749    298.38894    2631.9245 
   47060    3979.6923    296.20088    624.21473 
   47070    3981.2668    303.98248   -1128.9878 
   47080    3983.4912    301.62526     975.3134 
   47090    3984.9565    297.02113   -334.43009 
   47100    3983.9264    303.15112   -1407.4082 
   47110    3982.3594    306.78933   -297.10627 
   47120    3981.8663    308.09816    82.578168 
   47130    3982.9792    299.86755    -1101.052 
   47140    3983.5005    294.04192   -556.94766 
   47150    3981.4982    299.55351    2307.3428 
   47160    3978.6444    301.01776     3.480298 
   47170    3977.0899    304.55997   -1551.0382 
   47180    3978.9402    296.39122    511.04788 
   47190    3980.2868     298.8365    948.68709 
   47200    3979.5104    303.18559   -1388.4163 
   47210    3976.5863     305.7272   -1207.0351 
   47220    3975.0543    298.15306    183.45666 
   47230    3974.7456    306.11838    543.11465 
   47240    3975.9468    299.85187   -569.51086 
   47250    3974.7383    301.05874    108.98806 
   47260    3971.3558    300.64019     654.1251 
   47270     3969.632    300.47521   -788.44569 
   47280    3968.6408    303.21687    696.18758 
   47290    3969.1126    304.23155    1556.5956 
   47300    3968.7582    292.40499    -1865.334 
   47310    3965.8613     297.7988   -1061.1378 
   47320     3963.921    302.13663    1686.4716 
   47330    3962.4692    305.24213     21.28042 
   47340    3961.1341    303.98666   -2062.2538 
   47350    3960.1802    299.09475   -865.48245 
   47360    3959.0075     303.0364    637.03772 
   47370    3957.2908    302.80065   -736.67444 
   47380    3955.4866    299.14622   -335.04811 
   47390     3955.364    301.43413    1581.6579 
   47400    3955.3147    293.99761   -1179.8782 
   47410    3953.7936    300.24871    115.23225 
   47420    3952.7322    296.70579    2421.5292 
   47430    3951.9314     295.2772   -1436.7311 
   47440    3951.8818    295.79448   -2664.7941 
   47450    3950.0771    300.76523    1016.0845 
   47460    3948.8576    300.20953    1205.4687 
   47470    3949.4623    300.23473   -1590.5072 
   47480    3949.7715    296.03147   -738.22227 
   47490     3950.785    298.14505    2062.1707 
   47500    3950.8668    295.31399     1541.295 
   47510    3951.0745    295.03373    398.84921 
   47520    3951.6741    305.32166     1772.812 
   47530    3953.2535    297.96018   -276.94359 
   47540    3953.2084    300.91861   -1000.8022 
   47550    3952.7636    298.75358    1589.8018 
   47560    3951.2933    301.09311   -528.75492 
   47570    3950.4178    303.17404   -2694.4785 
   47580    3950.2776    299.20349   -340.35559 
   47590    3950.4231     305.4262    2395.8795 
   47600    3950.7517    303.29419    233.41696 
   47610    3949.7667    301.32655   -970.97585 
   47620    3948.4894    301.17912    1595.8003 
   47630    3947.0726    302.80704    1719.1158 
   47640    3947.1887     298.3981   -720.74492 
   47650    3946.7255      301.636   -222.68074 
   47660    3946.1066    301.03155   -746.13878 
   47670    3944.7576    303.86187   -2121.5305 
   47680    3944.1761    298.49153    320.96553 
   47690    3943.5471    302.73509    1516.1672 
   47700    3942.3718    300.55888   -1219.2847 
   47710     3942.883    293.73386   -245.01363 
   47720      3943.03    302.91899    3410.1994 
   47730    3941.2258    298.46474    2031.7652 
   47740    3940.0711    303.42899   -1312.7843 
   47750    3939.7588    299.33747    110.60866 
   47760    3941.8576    297.47817    1445.3305 
   47770    3944.3182    295.75901    -1625.434 
   47780    3944.8176    301.82974   -989.97726 
   47790    3944.2529    298.33558   -381.10614 
   47800    3944.3748    300.70856   -814.36034 
   47810     3947.212    297.45451     928.3095 
   47820    3951.0621    291.04353     2694.733 
   47830    3952.5689    295.24892    985.50426 
   47840    3951.6143    302.54256   -795.36958 
   47850    3951.7253    303.86849    1491.2287 
   47860    3953.9205    301.82231    1933.7396 
   47870    3957.9662    297.64006   -2603.4304 
   47880      3960.89    293.37558    -3254.565 
   47890    3960.7331    298.36262    227.22872 
   47900    3959.4348    303.02004   -729.66963 
   47910    3960.0574    301.37125    -1128.579 
   47920    3962.5745    299.25595    757.68236 
   47930    3964.2672    296.92904    560.19183 
   47940    3963.0003    303.85567    660.74012 
   47950     3961.464    301.01475    1544.6494 
   47960    3961.5875    305.68657    512.16478 
   47970    3963.2768    299.75292   -2371.4891 
   47980    3964.2328    294.72427   -2297.9314 
   47990    3963.0692     300.4231     1090.617 
   48000    3961.0731    299.76642   -1157.0563 
   48010    3960.6159    301.21761   -3347.3862 
   48020    3960.8071     305.4163    556.00813 
   48030    3959.9435    293.94533    1218.6089 
   48040    3957.5231    306.39028   -789.85399 
   48050    3955.3399    303.34732   -239.11263 
   48060    3953.9225    301.32101   -546.44518 
   48070    3952.9434    299.53557   -651.68017 
   48080    3952.5472    292.22346   -833.51558 
   48090    3950.2881    298.99036   -624.49808 
   48100    3947.3456    299.76205     -1260.52 
   48110    3946.0384    301.44389     -2015.66 
   48120    3945.0653    303.32468    1051.2058 
   48130    3946.1095    299.63484    1245.3038 
   48140    3945.4049    299.13988   -1802.6938 
   48150    3943.5447    306.92767    -469.5732 
   48160    3944.1767    299.58997    1587.0809 
   48170    3943.9744    306.12877   -150.88147 
   48180     3943.764    302.02201   -1322.5713 
   48190    3942.5129    302.80748   -850.89439 
   48200    3941.0974    297.18833   -619.23313 
   48210      3940.36    298.15694   -309.89334 
   48220    3940.9417     294.3926    582.91003 
   48230     3940.625    295.68086    1220.5792 
   48240    3939.9765    295.75756   -524.37095 
   48250    3939.5011    298.55837    694.54458 
   48260    3941.1126    301.78274    2424.3579 
   48270    3943.3376    298.65491   -246.89216 
   48280     3943.985    297.26802   -1162.4801 
   48290     3944.236     297.2655    980.26639 
   48300    3945.4044    305.18403    2076.0637 
   48310    3947.1648     299.2892   -572.80716 
   48320    3948.6844    305.49986    -455.5789 
   48330    3948.9664    302.35491    276.23629 
   48340    3948.9427    302.55567    253.98014 
   48350    3948.5456    304.44581   -232.63835 
   48360    3949.0304    301.83931    266.64009 
   48370    3949.5007    298.59008   -700.61522 
   48380    3949.1252    301.31721   -1118.8369 
   48390    3947.2702    298.90999    1643.7764 
   48400    3945.6238    301.00549    750.85185 
   48410    3944.6418    302.25899   -1018.6135 
   48420    3944.2266    302.31538   -346.44087 
   48430    3943.7904    302.13792    1435.7828 
   48440    3942.3133    298.28718    392.19045 
   48450    3941.8884    295.09761   -1710.7007 
   48460    3941.9459    300.07706   -526.86004 
   48470    3942.5027    295.53958    732.19912 
   48480    3943.0247    302.55271    282.99088 
   48490    3941.8639    300.02143    289.95416 
   48500     3941.224    295.35661    938.18281 
   48510    3941.1954    300.58631    177.30591 
   48520    3941.0975    300.43262     800.6263 
   48530    3940.7782    300.25981    1232.2332 
   48540    3940.7599    304.10736   -478.66097 
   48550    3939.9432    300.91576   -1870.4821 
   48560    3938.8697    302.87147   -557.79063 
   48570    3937.8307     299.0749    1249.7178 
   48580    3937.9304    296.39387   -749.81622 
   48590    3937.3163    299.54151   -1391.0073 
   48600    3935.2275    302.01293    1241.4884 
   48610    3933.5753    300.55971    1015.1292 
   48620    3931.2845    295.60205    74.706705 
   48630    3929.8694    303.34727     1136.944 
   48640    3929.5477    299.79741   -97.062906 
   48650     3927.784    298.55079   -658.99536 
   48660    3926.8877    296.33408    697.41036 
   48670    3926.7116    298.21114   -56.927639 
   48680    3926.8448    302.27272   -1264.1265 
   48690     3927.934    303.24323   -674.33185 
   48700    3928.6641    297.97165    1143.5688 
   48710    3928.6867    303.07706    1074.6114 
   48720    3928.7488    296.69579   -760.65885 
   48730    3927.6064    308.78648    941.32407 
   48740    3927.5238    305.27986     831.9096 
   48750    3927.6741    300.01626   -622.33851 
   48760    3927.9383    305.54161   -60.576086 
   48770    3926.6256    297.92404   -961.50281 
   48780    3927.3449    298.42631     -131.322 
   48790     3926.843    304.30958    6.9454163 
   48800    3926.2733    298.82211   -192.10366 
   48810    3925.0585    301.54172    198.51589 
   48820    3924.5907    300.67415   -438.19469 
   48830    3924.7135    294.64169    909.15306 
   48840    3924.9398    303.59282    707.35855 
   48850    3925.7194    300.04546   -1019.1952 
   48860     3925.365    301.21849    -590.1229 
   48870    3924.7643    297.65261    433.30655 
   48880    3925.2799    301.67339   -187.19563 
   48890    3926.4861    296.14624   -176.70601 
   48900    3925.6522    299.38457    624.37208 
   48910    3925.3846     304.9117   -478.91738 
   48920    3924.9291    301.74899   -654.32371 
   48930    3924.3064    303.61961    270.17688 
   48940    3924.4583    304.01151    975.91029 
   48950    3925.5008    299.29058   -646.52244 
   48960     3926.146    302.04888   -330.63392 
   48970    3925.7451    294.20403    932.26603 
   48980    3925.7106    295.35094    109.75482 
   48990    3926.4488    298.04348    105.26329 
   49000    3926.6436    301.31393   -74.513751 
   49010    3927.1418    294.60152    96.137477 
   49020    3927.2096    291.07832    295.67861 
   49030    3926.4785    302.40368    277.52977 
   49040     3926.778    300.18696   -571.29598 
   49050    3927.3401    296.92885   -835.41834 
   49060    3927.9707    297.55633    644.73094 
   49070    3929.3062    294.88271    153.79698 
   49080    3930.7309    301.97814   -307.46997 
   49090    3931.6916    304.94696   -270.49525 
   49100    3932.7334    300.60235   -184.09136 
   49110    3933.8668    305.12872    581.69587 
   49120    3935.9067    294.83058    501.75262 
   49130    3936.7545    298.21254   -79.806364 
   49140    3936.5724    293.41094   -772.84264 
   49150    3935.8553    305.61257    261.84393 
   49160    3936.6856    303.07123   -317.23431 
   49170     3937.177    298.44514   -935.46028 
   49180    3937.7705    294.27471   -671.41158 
   49190    3936.2267    297.81598   -335.26585 
   49200    3934.3874    306.38091    276.66464 
   49210    3933.1908    310.41779   -368.81404 
   49220    3933.2269    298.01697   -191.23487 
   49230    3932.4367    299.35128     91.92347 
   49240    3931.4372    302.78238    237.73608 
   49250    3929.5998    304.87409   -34.565374 
   49260     3927.936    297.41296   -337.25796 
   49270     3925.603    303.04963   -601.93828 
   49280    3924.7067    302.62035   -1094.9873 
   49290    3924.7164    296.10986   -369.13072 
   49300    3924.0391    300.23499    107.81392 
   49310    3922.0887    299.83739   -723.02399 
   49320    3919.7592    308.96227   -231.70711 
   49330    3919.7522    302.82235    1381.3543 
   49340    3921.4558     302.0309    918.63888 
   49350    3922.0473     299.5624   -296.08566 
   49360    3920.4223    301.51757    341.45534 
   49370    3917.3888    307.14848    -159.9635 
   49380    3916.0924    304.79049   -786.38561 
   49390    3917.0495    294.55989   -636.54837 
   49400    3917.6187    298.62424   -82.610593 
   49410    3917.0848    297.62073   -659.14949 
   49420     3915.215    305.70074   -278.18086 
   49430    3912.6544    305.05843    2075.2812 
   49440    3911.2929     302.0119    669.13627 
   49450    3910.6827    302.58053   -355.87745 
   49460    3909.4857    297.25886     176.7963 
   49470    3908.1435    299.05368    274.41666 
   49480    3905.3761    303.33827   -978.46392 
   49490    3903.9073    305.43183   -1321.7021 
   49500     3903.694     301.3824     181.1733 
   49510     3902.587    295.87866   -26.391667 
   49520    3902.0774    301.23407   -426.26532 
   49530    3901.0457    295.19258    939.38526 
   49540    3900.2259    300.67172    805.25727 
   49550    3899.9484    302.71194   -654.47059 
   49560    3900.3834    292.78152   -40.901158 
   49570    3899.8813     294.6133     61.49359 
   49580     3898.871    299.88088   -1443.4013 
   49590    3897.3234    300.41206   -1719.0129 
   49600    3896.6207    300.40033    166.75419 
   49610     3897.763    297.09362    313.99331 
   49620    3898.4797    297.54295    -1281.114 
   49630    3897.8591    300.72424    229.38218 
   49640    3898.7174     292.6885    1526.5876 
   49650    3897.5518    303.85404    343.15521 
   49660    3898.1394    298.83488    460.60791 
   49670    3898.7495    299.95019    1333.2133 
   49680    3900.1387     299.6535    -51.25399 
   49690    3901.8214    295.01369   -375.38006 
   49700    3902.0571     296.2121    548.73141 
   49710    3900.9331    305.41994   -127.81457 
   49720    3901.1661    304.68063   -1209.3758 
   49730    3902.9027    305.33868    988.32164 
   49740    3903.3975    301.33109    1198.6704 
   49750    3902.7664    298.82275    59.081773 
   49760    3900.6455    305.43669    415.92934 
   49770    3899.2957    298.29065    572.54332 
   49780     3898.163    300.74447    519.77727 
   49790     3897.413    301.54195   -519.70778 
   49800    3896.8691    296.88407    111.06162 
   49810    3894.4234    299.08508   -517.43639 
   49820    3893.2833    299.54575    24.963499 
   49830    3893.7271    299.40806    612.64477 
   49840    3894.6832    302.76689      728.987 
   49850    3894.2691    301.63321    374.78508 
   49860    3893.4468    297.75235     752.4027 
   49870    3893.0351    299.53216    1837.2968 
   49880    3894.2332    300.20829    423.31764 
   49890      3896.27    301.51242   -411.53913 
   49900    3897.3933    297.85438    347.85723 
   49910    3898.5256    302.74917    722.39217 
   49920    3899.5075    296.48245   -786.90889 
   49930    3900.7665    297.49222   -401.03436 
   49940    3903.1776    293.39052    822.12718 
   49950    3905.0234    292.25737    -604.2512 
   49960    3904.7105    302.57935    200.57533 
   49970     3904.084    302.39341    670.88749 
   49980    3905.0226    302.71299   -350.91453 
   49990    3907.1237    303.79014   -531.25182 
   50000    3908.8954    297.88465    671.07465 
Loop time of 798.202 on 1 procs for 50000 steps with 2560 atoms

Performance: 5.412 ns/day, 4.434 hours/ns, 62.641 timesteps/s
99.2% CPU use with 1 MPI tasks x no OpenMP threads

MPI task timing breakdown:
Section |  min time  |  avg time  |  max time  |%varavg| %total
---------------------------------------------------------------
Pair    | 652.41     | 652.41     | 652.41     |   0.0 | 81.74
Bond    | 46.217     | 46.217     | 46.217     |   0.0 |  5.79
Kspace  | 57.031     | 57.031     | 57.031     |   0.0 |  7.14
Neigh   | 21.283     | 21.283     | 21.283     |   0.0 |  2.67
Comm    | 2.9478     | 2.9478     | 2.9478     |   0.0 |  0.37
Output  | 4.0979     | 4.0979     | 4.0979     |   0.0 |  0.51
Modify  | 12.972     | 12.972     | 12.972     |   0.0 |  1.63
Other   |            | 1.242      |            |       |  0.16

Nlocal:    2560 ave 2560 max 2560 min
Histogram: 1 0 0 0 0 0 0 0 0 0
Nghost:    11649 ave 11649 max 11649 min
Histogram: 1 0 0 0 0 0 0 0 0 0
Neighs:    785884 ave 785884 max 785884 min
Histogram: 1 0 0 0 0 0 0 0 0 0

Total # of neighbors = 785884
Ave neighs/atom = 306.986
Ave special neighs/atom = 9.1
Neighbor list builds = 975
Dangerous builds = 0
#  ---- (end of examples) ----

write_data bpy-128_md.lmp
PPPM initialization ...
  using 12-bit tables for long-range coulomb (src/kspace.cpp:323)
  G vector (1/distance) = 0.199694
  grid = 8 8 8
  stencil order = 5
  estimated absolute RMS force accuracy = 0.015528
  estimated relative force accuracy = 4.6762e-05
  using double precision FFTW3
  3d grid and FFT values/proc = 2197 512
Total wall time: 0:13:18
